LatticeConstant 1.0 Ang
%block LatticeVectors
 50.00000000 0.00000000 0.00000000
 0.00000000 50.00000000 0.00000000
 0.00000000 0.00000000 50.00000000
%endblock LatticeVectors

NumberOfAtoms 26
AtomicCoordinatesFormat Ang
%block AtomicCoordinatesAndAtomicSpecies
 5.39264315 3.22645335 8.87330266 3 #  1: N
 5.37534139 6.86899387 8.86807666 3 #  2: N
 6.01341699 5.45990050 6.86441335 1 #  3: C
 4.75428595 4.62885296 6.86485235 1 #  4: C
 6.30244593 6.53199056 7.76204356 1 #  5: C
 4.46760127 3.55734397 7.76395031 1 #  6: C
 5.72989369 7.75542357 9.66654501 4 #  7: O
 5.04052891 2.33554430 9.66759270 4 #  8: O
 4.29551429 6.24892267 8.92713248 4 #  9: O
 6.46755228 3.85470887 8.94065652 4 # 10: O
 6.95531649 5.21950087 5.82530130 1 # 11: C
 3.81307240 4.86292450 5.82325075 1 # 12: C
 7.47740396 7.31214032 7.65044637 1 # 13: C
 3.29626888 2.77182180 7.65102082 1 # 14: C
 2.63598310 4.08413744 5.69891485 1 # 15: C
 8.13453153 5.99504151 5.70000864 1 # 16: C
 2.37294435 3.03505981 6.61405838 1 # 17: C
 8.40023196 7.04459895 6.61405838 1 # 18: C
 6.75709927 4.39304959 5.11369492 2 # 19: H
 4.01069069 5.68659559 5.10827661 2 # 20: H
 7.62758405 8.11816995 8.39449470 2 # 21: H
 3.14887436 1.96539732 8.39534154 2 # 22: H
 1.92179540 4.30052053 4.87897010 2 # 23: H
 8.84827325 5.77550319 4.88032847 2 # 24: H
 1.45508211 2.42183730 6.51983714 2 # 25: H
 9.32040423 7.65440335 6.51999777 2 # 26: H
%endblock AtomicCoordinatesAndAtomicSpecies

NumberOfSpecies 4
%block ChemicalSpeciesLabel
 1 6 C
 2 1 H
 3 7 N
 4 8 O
%endblock ChemicalSpeciesLabel
