LatticeConstant 1.0 Ang
%block LatticeVectors
 47.42419656 0.00000000 0.00000000
 0.00000000 8.68212002 0.00000000
 0.00000000 0.00000000 19.99999059
%endblock LatticeVectors

NumberOfAtoms 148
AtomicCoordinatesFormat Ang
%block AtomicCoordinatesAndAtomicSpecies
  6.05001147  2.45276019 11.24021548 1 #   1: H
  4.39278300  3.35737566 11.16711238 1 #   2: H
  4.39424568  5.21593004 11.22071767 1 #   3: H
  6.05877038  6.12509213 11.46008543 1 #   4: H
 42.47928218  5.21609666 11.35670241 1 #   5: H
 42.48006024  3.35791085 11.40999240 1 #   6: H
 40.82559993  2.45482457 11.32115628 1 #   7: H
 40.81219753  6.12467539 11.15115872 1 #   8: H
  8.19396040  7.35461206 11.51366491 1 #   9: H
 29.77092225  4.46154699 11.33175671 1 #  10: H
 17.10764991  4.45950831 11.26102646 1 #  11: H
 14.96743794  8.24404083 11.47179849 1 #  12: H
 31.90598364  8.24905063 11.09581917 1 #  13: H
 29.76905086  0.79112292 11.14981114 1 #  14: H
 28.10521604  1.69717153 11.36128956 1 #  15: H
 28.10581685  3.55370624 11.41355500 1 #  16: H
 18.76661233  3.55373027 11.17212650 1 #  17: H
 18.76590927  1.69522869 11.21894741 1 #  18: H
 17.10431744  0.79020299 11.42572120 1 #  19: H
 38.67759631  7.35701141 11.10171908 1 #  20: H
 45.89807317  5.73718821 11.30733820 2 #  21: C
 45.89333413  7.18383479 11.29965345 2 #  22: C
 47.14830777  7.91093916 11.28610213 2 #  23: C
 47.14852896  5.00920019 11.28612720 2 #  24: C
 47.14840015  3.56795639 11.28575689 2 #  25: C
  0.97494635  5.73707860 11.26612692 2 #  26: C
  0.97935525  7.18396414 11.27360822 2 #  27: C
  3.43858369  5.76557301 11.23730822 2 #  28: C
  3.48077028  7.17527026 11.26152245 2 #  29: C
  2.22886644  7.90593999 11.26076982 2 #  30: C
  2.22698406  5.02072878 11.23565552 2 #  31: C
  2.22686887  3.55338241 11.22189917 2 #  32: C
  4.76515091  7.90555135 11.29290811 2 #  33: C
  6.02423689  7.22876426 11.39693300 2 #  34: C
  7.24414865  7.92162617 11.43321300 2 #  35: C
 40.84858902  7.22902929 11.20228907 2 #  36: C
 39.62920409  7.92281178 11.16900293 2 #  37: C
 42.10869498  7.90594739 11.29142685 2 #  38: C
 43.43481503  5.76574700 11.34025478 2 #  39: C
 43.39266595  7.17540752 11.31788657 2 #  40: C
 44.64421219  7.90587492 11.31384380 2 #  41: C
 44.64624432  5.02088382 11.33903796 2 #  42: C
 44.64606263  3.55350949 11.35163961 2 #  43: C
 45.89376578  1.39358882 11.30854973 2 #  44: C
 45.89835927  2.83989873 11.31472768 2 #  45: C
 47.14849944  0.66671337 11.28605735 2 #  46: C
  0.97430463  2.83997645 11.25687089 2 #  47: C
  0.97931597  1.39352953 11.26310611 2 #  48: C
  3.48145522  1.39704737 11.21597091 2 #  49: C
  3.43799801  2.80658105 11.19203534 2 #  50: C
  2.22879051  0.66919574 11.24861945 2 #  51: C
  4.76769917  0.66240727 11.23886392 2 #  52: C
  6.02326889  1.34583080 11.24974483 2 #  53: C
  7.26152784  0.66681356 11.34070378 2 #  54: C
 40.85269646  1.34793805 11.32262208 2 #  55: C
 39.61383493  0.66911798 11.24619258 2 #  56: C
 42.10712572  0.66314036 11.33605139 2 #  57: C
 43.43488709  2.80719885 11.38227799 2 #  58: C
 43.39277773  1.39766550 11.35672045 2 #  59: C
 44.64475105  0.66917734 11.32389471 2 #  60: C
 22.18151751  8.41015848 11.27903476 2 #  61: C
 22.18090443  5.51851868 11.26978939 2 #  62: C
 23.43645384  6.24528118 11.29264650 2 #  63: C
 23.43660252  7.68310550 11.29252563 2 #  64: C
 24.69174313  8.41006298 11.30558892 2 #  65: C
 24.69207538  5.51856604 11.31525687 2 #  66: C
 27.19297435  8.41885923 11.32241946 2 #  67: C
 27.19569854  5.51493022 11.36265631 2 #  68: C
 25.94138434  7.68818814 11.31906418 2 #  69: C
 25.94213253  6.24270931 11.32974933 2 #  70: C
 28.48283279  6.24972497 11.34100133 2 #  71: C
 28.47781606  7.68916662 11.29464755 2 #  72: C
 29.73585568  8.36910762 11.20299619 2 #  73: C
 29.74045995  5.56853415 11.32761442 2 #  74: C
 17.13809126  8.36821753 11.37581615 2 #  75: C
 17.13484253  5.56652060 11.25884250 2 #  76: C
 15.91799518  7.67699001 11.40951828 2 #  77: C
 15.89759672  6.24897544 11.33597066 2 #  78: C
 18.39141475  6.24911531 11.24360535 2 #  79: C
 18.39614469  7.68852493 11.28677962 2 #  80: C
 19.68061315  8.41837106 11.25942579 2 #  81: C
 19.67794606  5.51433059 11.22365646 2 #  82: C
 20.93221761  7.68789458 11.26481246 2 #  83: C
 20.93109023  6.24243613 11.25495444 2 #  84: C
 30.95712206  7.67946474 11.16626881 2 #  85: C
 30.97730962  6.25173996 11.24509582 2 #  86: C
 22.18582643  4.07208142 11.26319649 2 #  87: C
 23.43612877  3.34413141 11.29185628 2 #  88: C
 23.43605045  1.90289650 11.29231244 2 #  89: C
 24.68660207  4.07207614 11.32156376 2 #  90: C
 27.15127142  4.10524058 11.38789154 2 #  91: C
 25.93932689  3.35884547 11.35800494 2 #  92: C
 25.93870008  1.89133874 11.34464190 2 #  93: C
 19.72138424  4.10477299 11.19898854 2 #  94: C
 20.93318040  3.35865627 11.22784724 2 #  95: C
 20.93341086  1.89125993 11.23915369 2 #  96: C
 22.18551452  1.17493255 11.27112320 2 #  97: C
 24.68671228  1.17487069 11.31346528 2 #  98: C
 27.15018724  1.14645055 11.34528158 2 #  99: C
 19.72199066  1.14603941 11.23618641 2 # 100: C
 11.87516534  1.42170871 13.16223264 3 # 101: N
 11.26336912  5.56889745 13.13494889 3 # 102: N
 12.18973653  3.90155276 11.49093447 2 # 103: C
 10.93879228  3.06253831 11.49649161 2 # 104: C
 12.34272522  5.11051946 12.22938183 2 # 105: C
 10.79678328  1.85751671 12.24309493 2 # 106: C
 11.47105615  6.59019730 13.80972064 4 # 107: O
 11.72780257  0.33645297 13.74930764 4 # 108: O
 10.20609108  4.90376225 13.16115485 4 # 109: O
 12.86827125  2.16782702 13.29188687 4 # 110: O
 13.27559140  3.52456672 10.65250397 2 # 111: C
  9.85481834  3.41658034 10.64577731 2 # 112: C
 13.51899053  5.89392064 12.17394433 2 # 113: C
  9.63523506  1.05051423 12.17808579 2 # 114: C
  8.67829596  2.63936620 10.59061165 2 # 115: C
 14.46329423  4.28600473 10.59912185 2 # 116: C
  8.53834722  1.44617455 11.36548408 2 # 117: C
 14.61488691  5.48070208 11.36803492 2 # 118: C
 13.18221730  2.60170638 10.04601102 1 # 119: H
  9.94088383  4.33384927 10.02993274 1 # 120: H
 13.55142519  6.80340087 12.80720505 1 # 121: H
  9.61411618  0.13719199 12.80675442 1 # 122: H
  7.85717476  2.94886036  9.91179984 1 # 123: H
 15.28430634  3.96205398  9.92705397 1 # 124: H
 35.60610844  5.57933146  9.43977720 3 # 125: N
 34.99529811  1.40903245  9.43484799 3 # 126: N
 35.93822150  3.06763483 11.08168142 2 # 127: C
 34.68623469  3.90546859 11.08612929 2 # 128: C
 36.07864137  1.85960249 10.34018298 2 # 129: C
 34.53192626  5.11759769 10.35278686 2 # 130: C
 35.15793901  0.33076427  8.83885008 4 # 131: O
 35.39250908  6.60248590  8.76956387 4 # 132: O
 33.98311192  2.13222475  9.32782390 4 # 133: O
 36.66111195  4.91182430  9.40007371 4 # 134: O
 37.02425964  3.42302532 11.92949662 2 # 135: C
 33.60031847  3.52381291 11.92274399 2 # 136: C
 37.24200425  1.05573218 10.40141829 2 # 137: C
 33.35676817  5.90302747 10.41635150 2 # 138: C
 32.41140847  4.28308336 11.97993364 2 # 139: C
 38.19995517  2.64466904 11.98818425 2 # 140: C
 32.26049346  5.48330222 11.21905307 2 # 141: C
 38.33886963  1.45070912 11.21392042 2 # 142: C
 36.93531284  4.34169777 12.54205886 1 # 143: H
 33.69506479  2.59941697 12.52632316 1 # 144: H
 37.26139710  0.14395924  9.77008449 1 # 145: H
 33.32932178  6.81945773  9.79214386 1 # 146: H
 31.59049445  3.95338013 12.64956457 1 # 147: H
 39.01986213  2.95544162 12.66807512 1 # 148: H
%endblock AtomicCoordinatesAndAtomicSpecies

NumberOfSpecies 4
%block ChemicalSpeciesLabel
 1 1 H
 2 6 C
 3 7 N
 4 8 O
%endblock ChemicalSpeciesLabel
