LatticeConstant 1.0 Ang
%block LatticeVectors
 47.42419656 0.00000000 0.00000000
 0.00000000 8.68212002 0.00000000
 0.00000000 0.00000000 19.99999059
%endblock LatticeVectors

NumberOfAtoms 148
AtomicCoordinatesFormat Ang
%block AtomicCoordinatesAndAtomicSpecies
  6.05001147  2.45276019 11.24021548 1 #   1: H
  4.39278300  3.35737566 11.16711238 1 #   2: H
  4.39424568  5.21593004 11.22071767 1 #   3: H
  6.05877038  6.12509213 11.46008543 1 #   4: H
 42.47928218  5.21609666 11.35670241 1 #   5: H
 42.48006024  3.35791085 11.40999240 1 #   6: H
 40.82559993  2.45482457 11.32115628 1 #   7: H
 40.81219753  6.12467539 11.15115872 1 #   8: H
  8.19396040  7.35461206 11.51366491 1 #   9: H
 29.77092225  4.46154699 11.33175671 1 #  10: H
 17.10764991  4.45950831 11.26102646 1 #  11: H
 14.96743794  8.24404083 11.47179849 1 #  12: H
 31.90598364  8.24905063 11.09581917 1 #  13: H
 29.76905086  0.79112292 11.14981114 1 #  14: H
 28.10521604  1.69717153 11.36128956 1 #  15: H
 28.10581685  3.55370624 11.41355500 1 #  16: H
 18.76661233  3.55373027 11.17212650 1 #  17: H
 18.76590927  1.69522869 11.21894741 1 #  18: H
 17.10431744  0.79020299 11.42572120 1 #  19: H
 38.67759631  7.35701141 11.10171908 1 #  20: H
 45.89807317  5.73718821 11.30733820 2 #  21: C
 45.89333413  7.18383479 11.29965345 2 #  22: C
 47.14830777  7.91093916 11.28610213 2 #  23: C
 47.14852896  5.00920019 11.28612720 2 #  24: C
 47.14840015  3.56795639 11.28575689 2 #  25: C
  0.97494635  5.73707860 11.26612692 2 #  26: C
  0.97935525  7.18396414 11.27360822 2 #  27: C
  3.43858369  5.76557301 11.23730822 2 #  28: C
  3.48077028  7.17527026 11.26152245 2 #  29: C
  2.22886644  7.90593999 11.26076982 2 #  30: C
  2.22698406  5.02072878 11.23565552 2 #  31: C
  2.22686887  3.55338241 11.22189917 2 #  32: C
  4.76515091  7.90555135 11.29290811 2 #  33: C
  6.02423689  7.22876426 11.39693300 2 #  34: C
  7.24414865  7.92162617 11.43321300 2 #  35: C
 40.84858902  7.22902929 11.20228907 2 #  36: C
 39.62920409  7.92281178 11.16900293 2 #  37: C
 42.10869498  7.90594739 11.29142685 2 #  38: C
 43.43481503  5.76574700 11.34025478 2 #  39: C
 43.39266595  7.17540752 11.31788657 2 #  40: C
 44.64421219  7.90587492 11.31384380 2 #  41: C
 44.64624432  5.02088382 11.33903796 2 #  42: C
 44.64606263  3.55350949 11.35163961 2 #  43: C
 45.89376578  1.39358882 11.30854973 2 #  44: C
 45.89835927  2.83989873 11.31472768 2 #  45: C
 47.14849944  0.66671337 11.28605735 2 #  46: C
  0.97430463  2.83997645 11.25687089 2 #  47: C
  0.97931597  1.39352953 11.26310611 2 #  48: C
  3.48145522  1.39704737 11.21597091 2 #  49: C
  3.43799801  2.80658105 11.19203534 2 #  50: C
  2.22879051  0.66919574 11.24861945 2 #  51: C
  4.76769917  0.66240727 11.23886392 2 #  52: C
  6.02326889  1.34583080 11.24974483 2 #  53: C
  7.26152784  0.66681356 11.34070378 2 #  54: C
 40.85269646  1.34793805 11.32262208 2 #  55: C
 39.61383493  0.66911798 11.24619258 2 #  56: C
 42.10712572  0.66314036 11.33605139 2 #  57: C
 43.43488709  2.80719885 11.38227799 2 #  58: C
 43.39277773  1.39766550 11.35672045 2 #  59: C
 44.64475105  0.66917734 11.32389471 2 #  60: C
 22.18151751  8.41015848 11.27903476 2 #  61: C
 22.18090443  5.51851868 11.26978939 2 #  62: C
 23.43645384  6.24528118 11.29264650 2 #  63: C
 23.43660252  7.68310550 11.29252563 2 #  64: C
 24.69174313  8.41006298 11.30558892 2 #  65: C
 24.69207538  5.51856604 11.31525687 2 #  66: C
 27.19297435  8.41885923 11.32241946 2 #  67: C
 27.19569854  5.51493022 11.36265631 2 #  68: C
 25.94138434  7.68818814 11.31906418 2 #  69: C
 25.94213253  6.24270931 11.32974933 2 #  70: C
 28.48283279  6.24972497 11.34100133 2 #  71: C
 28.47781606  7.68916662 11.29464755 2 #  72: C
 29.73585568  8.36910762 11.20299619 2 #  73: C
 29.74045995  5.56853415 11.32761442 2 #  74: C
 17.13809126  8.36821753 11.37581615 2 #  75: C
 17.13484253  5.56652060 11.25884250 2 #  76: C
 15.91799518  7.67699001 11.40951828 2 #  77: C
 15.89759672  6.24897544 11.33597066 2 #  78: C
 18.39141475  6.24911531 11.24360535 2 #  79: C
 18.39614469  7.68852493 11.28677962 2 #  80: C
 19.68061315  8.41837106 11.25942579 2 #  81: C
 19.67794606  5.51433059 11.22365646 2 #  82: C
 20.93221761  7.68789458 11.26481246 2 #  83: C
 20.93109023  6.24243613 11.25495444 2 #  84: C
 30.95712206  7.67946474 11.16626881 2 #  85: C
 30.97730962  6.25173996 11.24509582 2 #  86: C
 22.18582643  4.07208142 11.26319649 2 #  87: C
 23.43612877  3.34413141 11.29185628 2 #  88: C
 23.43605045  1.90289650 11.29231244 2 #  89: C
 24.68660207  4.07207614 11.32156376 2 #  90: C
 27.15127142  4.10524058 11.38789154 2 #  91: C
 25.93932689  3.35884547 11.35800494 2 #  92: C
 25.93870008  1.89133874 11.34464190 2 #  93: C
 19.72138424  4.10477299 11.19898854 2 #  94: C
 20.93318040  3.35865627 11.22784724 2 #  95: C
 20.93341086  1.89125993 11.23915369 2 #  96: C
 22.18551452  1.17493255 11.27112320 2 #  97: C
 24.68671228  1.17487069 11.31346528 2 #  98: C
 27.15018724  1.14645055 11.34528158 2 #  99: C
 19.72199066  1.14603941 11.23618641 2 # 100: C
 11.22590758  2.42675830 13.86256279 3 # 101: N
 11.82964835  4.77180666 13.81104768 3 # 102: N
 12.15039854  3.96237569 11.44822751 2 # 103: C
 10.89615405  3.12847750 11.46617754 2 # 104: C
 12.59940150  4.75313481 12.54522655 2 # 105: C
 10.47552332  2.35482342 12.58608347 2 # 106: C
 12.29723930  5.41978458 14.76130423 4 # 107: O
 10.85212854  1.69207804 14.79244827 4 # 108: O
 10.75276689  4.13926745 13.84494283 4 # 109: O
 12.18950613  3.21847343 13.92909911 4 # 110: O
 12.95105972  3.98957812 10.27248660 2 # 111: C
 10.11616927  3.01194034 10.28207328 2 # 112: C
 13.79514696  5.50728247 12.50227407 2 # 113: C
  9.32861799  1.52519549 12.55447459 2 # 114: C
  8.95408202  2.21240660 10.24196061 2 # 115: C
 14.15620259  4.72311691 10.21931719 2 # 116: C
  8.52832883  1.46168752 11.38164230 2 # 117: C
 14.61006596  5.48813458 11.33746987 2 # 118: C
 12.62020349  3.40427897  9.39147430 1 # 119: H
 10.42844165  3.57900792  9.38264324 1 # 120: H
 14.07265526  6.06819912 13.41747190 1 # 121: H
  9.07528636  0.97137846 13.48126342 1 # 122: H
  8.37543169  2.14655307  9.29769411 1 # 123: H
 14.74829322  4.72433323  9.28117678 1 # 124: H
 34.95403766  4.57040750  8.69640159 3 # 125: N
 35.58643361  2.17155511  8.73259266 3 # 126: N
 35.89110642  2.99474869 11.09514500 2 # 127: C
 34.63856238  3.83171783 11.08664692 2 # 128: C
 36.34509328  2.19774057 10.00539558 2 # 129: C
 34.20848726  4.61715183  9.97804961 2 # 130: C
 36.01045073  1.43264619  7.82785463 4 # 131: O
 34.49688741  5.21672332  7.73987397 4 # 132: O
 34.56587638  2.88548659  8.64457592 4 # 133: O
 35.99702276  3.88430728  8.65611299 4 # 134: O
 36.67726623  2.95785715 12.28054098 2 # 135: C
 33.85534528  3.91841745 12.27149012 2 # 136: C
 37.53116372  1.42752252 10.06346005 2 # 137: C
 33.04939980  5.42743953 10.02148984 2 # 138: C
 32.68298993  4.70329775 12.32454769 2 # 139: C
 37.87314560  2.21180507 12.34997832 2 # 140: C
 32.24926941  5.46593376 11.19649064 2 # 141: C
 38.33267304  1.44112725 11.23677921 2 # 142: C
 36.33656770  3.54372512 13.15677516 1 # 143: H
 34.17368755  3.33998907 13.16136165 1 # 144: H
 37.80919992  0.85641725  9.15416197 1 # 145: H
 32.79032425  5.98547211  9.09860719 1 # 146: H
 32.10390715  4.74777068 13.26990209 1 # 147: H
 38.45188052  2.20625381 13.29661113 1 # 148: H
%endblock AtomicCoordinatesAndAtomicSpecies

NumberOfSpecies 4
%block ChemicalSpeciesLabel
 1 1 H
 2 6 C
 3 7 N
 4 8 O
%endblock ChemicalSpeciesLabel
