LatticeConstant 1.0 Ang
%block LatticeVectors
 50.00000000 0.00000000 0.00000000
 0.00000000 50.00000000 0.00000000
 0.00000000 0.00000000 50.00000000
%endblock LatticeVectors

NumberOfAtoms 26
AtomicCoordinatesFormat Ang
%block AtomicCoordinatesAndAtomicSpecies
 3.55010314 5.99622768 4.58793422 3 #  1: N
 7.15434213 4.11998647 4.57548071 3 #  2: N
 5.99690918 5.48471565 6.36579199 1 #  3: C
 4.74377014 4.64466072 6.36459487 1 #  4: C
 7.15221901 5.21869330 5.57008720 1 #  5: C
 3.57923379 4.89277085 5.57656364 1 #  6: C
 8.16089483 3.99897818 3.85352136 4 #  7: O
 2.53393664 6.10354655 3.87766079 4 #  8: O
 6.15139164 3.38122222 4.52731261 4 #  9: O
 4.54013720 6.75207055 4.53131885 4 # 10: O
 6.09330954 6.55074492 7.30334682 1 # 11: C
 4.67250832 3.57098862 7.29612925 1 # 12: C
 8.33615105 5.98529015 5.68075859 1 # 13: C
 2.41082859 4.10284840 5.68912278 1 # 14: C
 3.50892373 2.77190078 7.41875652 1 # 15: C
 7.27385415 7.32455558 7.42680173 1 # 16: C
 2.37294435 3.03505981 6.61405838 1 # 17: C
 8.40023196 7.04459895 6.61405838 1 # 18: C
 5.21144470 6.78030734 7.93446562 2 # 19: H
 5.56066838 3.35661178 7.92373531 2 # 20: H
 9.18196602 5.71673833 5.01869916 2 # 21: H
 1.55579017 4.36018042 5.03433392 2 # 22: H
 3.49271991 1.93904867 8.15039161 2 # 23: H
 7.31069868 8.15089828 8.16524612 2 # 24: H
 1.45994481 2.41452751 6.70766438 2 # 25: H
 9.32553831 7.64668562 6.70746942 2 # 26: H
%endblock AtomicCoordinatesAndAtomicSpecies

NumberOfSpecies 4
%block ChemicalSpeciesLabel
 1 6 C
 2 1 H
 3 7 N
 4 8 O
%endblock ChemicalSpeciesLabel
