LatticeConstant 1.0 Ang
%block LatticeVectors
 50.00000000 0.00000000 0.00000000
 0.00000000 50.00000000 0.00000000
 0.00000000 0.00000000 50.00000000
%endblock LatticeVectors

NumberOfAtoms 26
AtomicCoordinatesFormat Ang
%block AtomicCoordinatesAndAtomicSpecies
 3.88965905 5.48579468 4.17420752 3 #  1: N
 6.96863683 4.52304460 4.19461680 3 #  2: N
 6.03462646 5.42801764 6.36625205 1 #  3: C
 4.78155644 4.58785896 6.36654137 1 #  4: C
 7.07352661 5.39649093 5.38729987 1 #  5: C
 3.75208189 4.63293919 5.37818582 1 #  6: C
 7.86633642 4.60965611 3.33691607 4 #  7: O
 2.99286356 5.41367063 3.31446569 4 #  8: O
 5.99193403 3.75139777 4.12668088 4 #  9: O
 4.88980180 6.22644179 4.09786934 4 # 10: O
 6.22994330 6.28682766 7.48384642 1 # 11: C
 4.55375562 3.74950207 7.49387044 1 # 12: C
 8.23729146 6.19340531 5.49772071 1 # 13: C
 2.56666111 3.86859520 5.48942238 1 # 14: C
 3.37144172 2.97856882 7.61757852 1 # 15: C
 7.39194204 7.08801687 7.60860388 1 # 16: C
 2.37294435 3.03505981 6.61405838 1 # 17: C
 8.40023196 7.04459895 6.61405838 1 # 18: C
 5.43948171 6.33201506 8.25961958 2 # 19: H
 5.33450921 3.69658261 8.27891722 2 # 20: H
 8.98889992 6.11421556 4.68861043 2 # 21: H
 1.82344311 3.95783462 4.67350434 2 # 22: H
 3.23201732 2.33094646 8.50658989 2 # 23: H
 7.50751143 7.74914197 8.49124606 2 # 24: H
 1.44574925 2.43586681 6.70715813 2 # 25: H
 9.31136708 7.66798834 6.70703303 2 # 26: H
%endblock AtomicCoordinatesAndAtomicSpecies

NumberOfSpecies 4
%block ChemicalSpeciesLabel
 1 6 C
 2 1 H
 3 7 N
 4 8 O
%endblock ChemicalSpeciesLabel
