LatticeConstant 1.0 Ang
%block LatticeVectors
 50.00000000 0.00000000 0.00000000
 0.00000000 50.00000000 0.00000000
 0.00000000 0.00000000 50.00000000
%endblock LatticeVectors

NumberOfAtoms 26
AtomicCoordinatesFormat Ang
%block AtomicCoordinatesAndAtomicSpecies
 5.94014567 2.40342730 7.67966250 3 #  1: N
 4.79761936 7.33516104 7.70866088 3 #  2: N
 6.08940380 5.34567432 6.82515265 1 #  3: C
 4.83089739 4.51368782 6.82850683 1 #  4: C
 6.04625878 6.72409571 7.19494692 1 #  5: C
 4.75029905 3.13238221 7.18092063 1 #  6: C
 4.85196778 8.51665849 8.09612273 4 #  7: O
 5.77919136 1.22515956 8.04623978 4 #  8: O
 3.76901105 6.63094310 7.71533100 4 #  9: O
 7.02893346 3.01081990 7.69659032 4 # 10: O
 7.32823687 4.85123947 6.32962536 1 # 11: C
 3.63893374 5.12469618 6.34736466 1 # 12: C
 7.17990789 7.56528694 7.10086754 1 # 13: C
 3.54432190 2.39893931 7.08346106 1 # 14: C
 2.42453952 4.40198725 6.24515698 1 # 15: C
 8.47054867 5.68331677 6.22724983 1 # 16: C
 2.37294435 3.03505981 6.61405838 1 # 17: C
 8.40023196 7.04459895 6.61405838 1 # 18: C
 7.39124344 3.78445669 6.03517651 2 # 19: H
 3.67205444 6.19564614 6.06338531 2 # 20: H
 7.06105415 8.61949329 7.41767745 2 # 21: H
 3.56909433 1.33370710 7.38466795 2 # 22: H
 1.51403643 4.91347891 5.87292653 2 # 23: H
 9.42062254 5.26180654 5.84100035 2 # 24: H
 1.42637425 2.46499202 6.53394384 2 # 25: H
 9.29176814 7.69745018 6.53421903 2 # 26: H
%endblock AtomicCoordinatesAndAtomicSpecies

NumberOfSpecies 4
%block ChemicalSpeciesLabel
 1 6 C
 2 1 H
 3 7 N
 4 8 O
%endblock ChemicalSpeciesLabel
