LatticeConstant 1.0 Ang
%block LatticeVectors
 50.00000000 0.00000000 0.00000000
 0.00000000 50.00000000 0.00000000
 0.00000000 0.00000000 50.00000000
%endblock LatticeVectors

NumberOfAtoms 26
AtomicCoordinatesFormat Ang
%block AtomicCoordinatesAndAtomicSpecies
 2.80369404 5.96989079 4.27726166 3 #  1: N
 6.81553435 3.29734851 4.04130103 3 #  2: N
 5.71990247 5.36333597 5.01013428 1 #  3: C
 4.53013180 4.56589209 5.48403320 1 #  4: C
 6.83790983 4.74071823 4.37684011 1 #  5: C
 3.16415184 4.85880486 5.18907960 1 #  6: C
 7.78522984 2.83780101 3.41080645 4 #  7: O
 1.59955150 6.11653605 3.99952804 4 #  8: O
 5.83069998 2.63137967 4.41625332 4 #  9: O
 3.72519530 6.69243976 3.84897486 4 # 10: O
 5.83844828 6.75011883 5.30593944 1 # 11: C
 4.77718244 3.48836820 6.38042294 1 # 12: C
 8.00600785 5.46076282 4.03231616 1 # 13: C
 2.09725087 4.10777640 5.73634216 1 # 14: C
 3.71821332 2.72794342 6.93526209 1 # 15: C
 7.00365657 7.48268655 4.96927376 1 # 16: C
 2.37294435 3.03505981 6.61405838 1 # 17: C
 8.09223712 6.83971120 4.32956326 1 # 18: C
 4.98563477 7.26006991 5.79721782 2 # 19: H
 5.82810296 3.23964001 6.63017367 2 # 20: H
 8.82219514 4.90182417 3.53505200 2 # 21: H
 1.06827105 4.39852228 5.44872040 2 # 22: H
 3.94943899 1.89072379 7.62431441 2 # 23: H
 7.05835170 8.56346348 5.21099587 2 # 24: H
 1.54126984 2.44487972 7.04695045 2 # 25: H
 9.00484832 7.40966150 4.06551159 2 # 26: H
%endblock AtomicCoordinatesAndAtomicSpecies

NumberOfSpecies 4
%block ChemicalSpeciesLabel
 1 6 C
 2 1 H
 3 7 N
 4 8 O
%endblock ChemicalSpeciesLabel
