LatticeConstant 1.0 Ang
%block LatticeVectors
 50.00000000 0.00000000 0.00000000
 0.00000000 50.00000000 0.00000000
 0.00000000 0.00000000 50.00000000
%endblock LatticeVectors

NumberOfAtoms 26
AtomicCoordinatesFormat Ang
%block AtomicCoordinatesAndAtomicSpecies
 4.28494213 4.89159052 3.93880974 3 #  1: N
 6.69801297 4.95495308 3.96883075 3 #  2: N
 6.07143928 5.37267924 6.38549406 1 #  3: C
 4.81820956 4.53276063 6.38727133 1 #  4: C
 6.95383307 5.58856081 5.28393554 1 #  5: C
 3.95142870 4.33327369 5.27031446 1 #  6: C
 7.45545697 5.25531100 3.02804365 4 #  7: O
 3.52772340 4.60964951 2.99238007 4 #  8: O
 5.74460707 4.15597924 3.88721911 4 #  9: O
 5.29798457 5.61284633 3.84822144 4 # 10: O
 6.40590886 6.01148828 7.61218620 1 # 11: C
 4.40740518 3.96950148 7.62807156 1 # 12: C
 8.09773406 6.41486455 5.38555539 1 # 13: C
 2.74957080 3.59363858 5.37177990 1 # 14: C
 3.20661098 3.22634849 7.74350493 1 # 15: C
 7.55007146 6.83913612 7.72880794 1 # 16: C
 2.37294435 3.03505981 6.61405838 1 # 17: C
 8.40023196 7.04459895 6.61405838 1 # 18: C
 5.73851345 5.86208670 8.48451524 2 # 19: H
 5.05906340 4.11064294 8.51356336 2 # 20: H
 8.72274642 6.53510577 4.47960432 2 # 21: H
 2.14032827 3.48148112 4.45400914 2 # 22: H
 2.92263668 2.79601889 8.72501913 2 # 23: H
 7.77647672 7.32464324 8.69964439 2 # 24: H
 1.43194500 2.45661787 6.69959032 2 # 25: H
 9.29757595 7.68871967 6.69954567 2 # 26: H
%endblock AtomicCoordinatesAndAtomicSpecies

NumberOfSpecies 4
%block ChemicalSpeciesLabel
 1 6 C
 2 1 H
 3 7 N
 4 8 O
%endblock ChemicalSpeciesLabel
