LatticeConstant 1.0 Ang
%block LatticeVectors
 50.00000000 0.00000000 0.00000000
 0.00000000 50.00000000 0.00000000
 0.00000000 0.00000000 50.00000000
%endblock LatticeVectors

NumberOfAtoms 26
AtomicCoordinatesFormat Ang
%block AtomicCoordinatesAndAtomicSpecies
 4.14909587 5.09579965 3.99527351 3 #  1: N
 6.79738620 4.80919695 4.02653796 3 #  2: N
 6.05949192 5.39063896 6.37702482 1 #  3: C
 4.80634090 4.55060203 6.37831479 1 #  4: C
 6.99821839 5.52354173 5.30941801 1 #  5: C
 3.88310497 4.43598045 5.29517396 1 #  6: C
 7.60475884 5.03838531 3.10749565 4 #  7: O
 3.34384802 4.88605779 3.06997123 4 #  8: O
 5.83670210 4.01860210 3.94876712 4 #  9: O
 5.15759276 5.82388850 3.90871821 4 # 10: O
 6.34329395 6.10345363 7.57538710 1 # 11: C
 4.45850583 3.89268509 7.59147693 1 # 12: C
 8.14859063 6.34032162 5.41490865 1 # 13: C
 2.68656146 3.68835656 5.40081429 1 # 14: C
 3.26373297 3.14048059 7.71070007 1 # 15: C
 7.49321160 6.92254470 7.69575670 1 # 16: C
 2.37294435 3.03505981 6.61405838 1 # 17: C
 8.40023196 7.04459895 6.61405838 1 # 18: C
 5.63158544 6.01932368 8.42101621 2 # 19: H
 5.15493309 3.96652808 8.45066920 2 # 20: H
 8.81916592 6.39370383 4.53551974 2 # 21: H
 2.03089838 3.64598018 4.50954043 2 # 22: H
 3.02954571 2.63530928 8.66942494 2 # 23: H
 7.67925289 7.46714486 8.64354318 2 # 24: H
 1.43641905 2.44989231 6.70288366 2 # 25: H
 9.30204700 7.68199862 6.70281145 2 # 26: H
%endblock AtomicCoordinatesAndAtomicSpecies

NumberOfSpecies 4
%block ChemicalSpeciesLabel
 1 6 C
 2 1 H
 3 7 N
 4 8 O
%endblock ChemicalSpeciesLabel
