LatticeConstant 1.0 Ang
%block LatticeVectors
 50.00000000 0.00000000 0.00000000
 0.00000000 50.00000000 0.00000000
 0.00000000 0.00000000 50.00000000
%endblock LatticeVectors

NumberOfAtoms 26
AtomicCoordinatesFormat Ang
%block AtomicCoordinatesAndAtomicSpecies
 4.01686426 5.29457510 4.07407510 3 #  1: N
 6.88768039 4.66501223 4.10185749 3 #  2: N
 6.04717556 5.40915337 6.37059212 1 #  3: C
 4.79407791 4.56903622 6.37138428 1 #  4: C
 7.03814510 5.45943363 5.34389544 1 #  5: C
 3.81641829 4.53622633 5.33128720 1 #  6: C
 7.74188114 4.82282725 3.21053704 4 #  7: O
 3.16492479 5.15502181 3.17779161 4 #  8: O
 5.91919818 3.88354896 4.02864659 4 #  9: O
 5.02104615 6.02915042 3.99228876 4 # 10: O
 6.28454016 6.19541854 7.53255839 1 # 11: C
 4.50746172 3.81909279 7.54656185 1 # 12: C
 8.19516244 6.26638288 5.45232853 1 # 13: C
 2.62537415 3.78033559 5.44019435 1 # 14: C
 3.31887171 3.05759400 7.66855094 1 # 15: C
 7.44042583 7.00565725 7.65564859 1 # 16: C
 2.37294435 3.03505981 6.61405838 1 # 17: C
 8.40023196 7.04459895 6.61405838 1 # 18: C
 5.53175154 6.17627157 8.34596980 2 # 19: H
 5.24707354 3.82801914 8.37213423 2 # 20: H
 8.90799638 6.25316685 4.60525188 2 # 21: H
 1.92489394 3.80532999 4.58301194 2 # 22: H
 3.13303958 2.47973346 8.59631099 2 # 23: H
 7.58947951 7.60889108 8.57401227 2 # 24: H
 1.44103751 2.44294967 6.70541370 2 # 25: H
 9.30666107 7.67506258 6.70531458 2 # 26: H
%endblock AtomicCoordinatesAndAtomicSpecies

NumberOfSpecies 4
%block ChemicalSpeciesLabel
 1 6 C
 2 1 H
 3 7 N
 4 8 O
%endblock ChemicalSpeciesLabel
