LatticeConstant 1.0 Ang
%block LatticeVectors
 50.00000000 0.00000000 0.00000000
 0.00000000 50.00000000 0.00000000
 0.00000000 0.00000000 50.00000000
%endblock LatticeVectors

NumberOfAtoms 26
AtomicCoordinatesFormat Ang
%block AtomicCoordinatesAndAtomicSpecies
 5.65508593 2.83193965 8.47031426 3 #  1: N
 5.12492961 7.11253320 8.49266902 3 #  2: N
 6.04496644 5.41247419 6.85844663 1 #  3: C
 4.78596989 4.58122450 6.86011644 1 #  4: C
 6.19098128 6.63575877 7.58018711 1 #  5: C
 4.60182717 3.35557064 7.56903169 1 #  6: C
 5.35331233 8.13927466 9.15799599 4 #  7: O
 5.39502575 1.80265152 9.11957129 4 #  8: O
 4.06345821 6.46012035 8.53314616 4 #  9: O
 6.73742549 3.44902547 8.51948075 4 # 10: O
 7.11475034 5.04297860 5.99603378 1 # 11: C
 3.72402884 4.99677808 6.00852806 1 # 12: C
 7.34896191 7.44125753 7.47125336 1 # 13: C
 3.41620411 2.59153071 7.45786200 1 # 14: C
 2.53134062 4.24143989 5.88824941 1 # 15: C
 8.27877895 5.84179345 5.87503026 1 # 16: C
 2.37294435 3.03505981 6.61405838 1 # 17: C
 8.40023196 7.04459895 6.61405838 1 # 18: C
 7.02901796 4.09779094 5.42335089 2 # 19: H
 3.84000537 5.94317609 5.44323581 2 # 20: H
 7.38357807 8.36959827 8.07360785 2 # 21: H
 3.35395018 1.65711975 8.04867459 2 # 22: H
 1.72228973 4.60042484 5.22059564 2 # 23: H
 9.09445310 5.51948035 5.19658361 2 # 24: H
 1.44319071 2.43971290 6.52180440 2 # 25: H
 9.30853678 7.67224294 6.52201933 2 # 26: H
%endblock AtomicCoordinatesAndAtomicSpecies

NumberOfSpecies 4
%block ChemicalSpeciesLabel
 1 6 C
 2 1 H
 3 7 N
 4 8 O
%endblock ChemicalSpeciesLabel
