LatticeConstant 1.0 Ang
%block LatticeVectors
 50.00000000 0.00000000 0.00000000
 0.00000000 50.00000000 0.00000000
 0.00000000 0.00000000 50.00000000
%endblock LatticeVectors

NumberOfAtoms 26
AtomicCoordinatesFormat Ang
%block AtomicCoordinatesAndAtomicSpecies
 5.74159790 2.70189166 8.28754854 3 #  1: N
 5.03270074 7.18736114 8.31721749 3 #  2: N
 6.05680490 5.39467819 6.85268692 1 #  3: C
 4.79790134 4.56328870 6.85481161 1 #  4: C
 6.15000057 6.66674496 7.49441547 1 #  5: C
 4.64645245 3.28848826 7.47982668 1 #  6: C
 5.21356423 8.26085863 8.92046552 4 #  7: O
 5.51175787 1.62717548 8.87129397 4 #  8: O
 3.97904846 6.52195083 8.34959724 4 #  9: O
 6.82615732 3.31564051 8.32895381 4 # 10: O
 7.17389254 4.98456456 6.07253149 1 # 11: C
 3.69632041 5.03843042 6.08906615 1 # 12: C
 7.30154856 7.48175410 7.38806105 1 # 13: C
 3.45543512 2.53255721 7.37090606 1 # 14: C
 2.49781642 4.29183470 5.97205777 1 # 15: C
 8.33218243 5.79217890 5.95491671 1 # 16: C
 2.37294435 3.03505981 6.61405838 1 # 17: C
 8.40023196 7.04459895 6.61405838 1 # 18: C
 7.12970077 4.00109981 5.56308119 2 # 19: H
 3.78620795 6.02404636 5.58991033 2 # 20: H
 7.29339764 8.44960836 7.92568307 2 # 21: H
 3.42047590 1.55711584 7.89373576 2 # 22: H
 1.65771909 4.69748983 5.37299561 2 # 23: H
 9.18551360 5.43756633 5.34207435 2 # 24: H
 1.43871910 2.44643479 6.52386780 2 # 25: H
 9.30407615 7.67894832 6.52410082 2 # 26: H
%endblock AtomicCoordinatesAndAtomicSpecies

NumberOfSpecies 4
%block ChemicalSpeciesLabel
 1 6 C
 2 1 H
 3 7 N
 4 8 O
%endblock ChemicalSpeciesLabel
