LatticeConstant 1.0 Ang
%block LatticeVectors
 50.00000000 0.00000000 0.00000000
 0.00000000 50.00000000 0.00000000
 0.00000000 0.00000000 50.00000000
%endblock LatticeVectors

NumberOfAtoms 26
AtomicCoordinatesFormat Ang
%block AtomicCoordinatesAndAtomicSpecies
 5.98538381 2.33542365 7.46269696 3 #  1: N
 4.73853585 7.35768375 7.48317171 3 #  2: N
 6.09909200 5.33111066 6.81291822 1 #  3: C
 4.84075257 4.49887315 6.81662979 1 #  4: C
 6.02061498 6.73086224 7.08345786 1 #  5: C
 4.77455547 3.09591907 7.07360165 1 #  6: C
 4.75845349 8.56360467 7.79037633 4 #  7: O
 5.83992885 1.13385672 7.75197158 4 #  8: O
 3.71864106 6.64087627 7.48114219 4 #  9: O
 7.07477431 2.94191025 7.47127238 4 # 10: O
 7.36912793 4.82173854 6.42270128 1 # 11: C
 3.62844221 5.14046743 6.43680520 1 # 12: C
 7.14889306 7.57982850 6.99480799 1 # 13: C
 3.56409562 2.36921473 6.98137640 1 # 14: C
 2.40936865 4.42479266 6.34100747 1 # 15: C
 8.50661993 5.66116938 6.32690220 1 # 16: C
 2.37294435 3.03505981 6.61405838 1 # 17: C
 8.40023196 7.04459895 6.61405838 1 # 18: C
 7.45989728 3.73830762 6.20675267 2 # 19: H
 3.64992310 6.22891479 6.22824826 2 # 20: H
 7.00123412 8.65144340 7.23078274 2 # 21: H
 3.60126567 1.28534596 7.20477244 2 # 22: H
 1.48317658 4.95986857 6.04936193 2 # 23: H
 9.48141997 5.22788101 6.02436959 2 # 24: H
 1.42269446 2.47052362 6.53846333 2 # 25: H
 9.28810159 7.70296187 6.53874841 2 # 26: H
%endblock AtomicCoordinatesAndAtomicSpecies

NumberOfSpecies 4
%block ChemicalSpeciesLabel
 1 6 C
 2 1 H
 3 7 N
 4 8 O
%endblock ChemicalSpeciesLabel
