LatticeConstant 1.0 Ang
%block LatticeVectors
 50.00000000 0.00000000 0.00000000
 0.00000000 50.00000000 0.00000000
 0.00000000 0.00000000 50.00000000
%endblock LatticeVectors

NumberOfAtoms 26
AtomicCoordinatesFormat Ang
%block AtomicCoordinatesAndAtomicSpecies
 5.88435329 2.48729648 7.89052212 3 #  1: N
 4.86739261 7.29908199 7.92389920 3 #  2: N
 6.07908970 5.36117884 6.83593192 1 #  3: C
 4.82043266 4.52941879 6.83890119 1 #  4: C
 6.07686481 6.71108101 7.30113512 1 #  5: C
 4.72081401 3.17670521 7.28492681 1 #  6: C
 4.96051091 8.45022765 8.38780576 4 #  7: O
 5.70414191 1.33797667 8.33232285 4 #  8: O
 3.83021733 6.60768224 7.93927150 4 #  9: O
 6.97213698 3.09619848 7.91574453 4 # 10: O
 7.28151373 4.88837169 6.23981921 1 # 11: C
 3.65374094 5.10243745 6.25917162 1 # 12: C
 7.21620650 7.54399054 7.20226049 1 # 13: C
 3.51958881 2.43611901 7.18290804 1 # 14: C
 2.44435227 4.37220398 6.15125464 1 # 15: C
 8.42891528 5.71266700 6.13157625 1 # 16: C
 2.37294435 3.03505981 6.61405838 1 # 17: C
 8.40023196 7.04459895 6.61405838 1 # 18: C
 7.31235412 3.84389992 5.86992324 2 # 19: H
 3.70215275 6.15040124 5.90125646 2 # 20: H
 7.13063792 8.57499523 7.59666267 2 # 21: H
 3.52819501 1.39518848 7.56033152 2 # 22: H
 1.55345341 4.85422585 5.70053386 2 # 23: H
 9.35009193 5.30827857 5.66531077 2 # 24: H
 1.43028569 2.45911220 6.52997760 2 # 25: H
 9.29566675 7.69158964 6.53024079 2 # 26: H
%endblock AtomicCoordinatesAndAtomicSpecies

NumberOfSpecies 4
%block ChemicalSpeciesLabel
 1 6 C
 2 1 H
 3 7 N
 4 8 O
%endblock ChemicalSpeciesLabel
