LatticeConstant 1.0 Ang
%block LatticeVectors
 50.00000000 0.00000000 0.00000000
 0.00000000 50.00000000 0.00000000
 0.00000000 0.00000000 50.00000000
%endblock LatticeVectors

NumberOfAtoms 26
AtomicCoordinatesFormat Ang
%block AtomicCoordinatesAndAtomicSpecies
 3.76875806 5.66753752 4.29432514 3 #  1: N
 7.04010392 4.38413787 4.30464350 3 #  2: N
 6.02198047 5.44702756 6.36402239 1 #  3: C
 4.76891239 4.60686597 6.36380923 1 #  4: C
 7.10432754 5.33506320 5.43955302 1 #  5: C
 3.69074463 4.72514363 5.43522890 1 #  6: C
 7.97778861 4.40016967 3.48640939 4 #  7: O
 2.82939188 5.65940731 3.47816025 4 #  8: O
 6.05485466 3.62292434 4.24267315 4 #  9: O
 4.76517654 6.41378309 4.22404754 4 # 10: O
 6.17974704 6.37703098 7.42935043 1 # 11: C
 4.59693370 3.68459519 7.43406447 1 # 12: C
 8.27487158 6.12184158 5.55099977 1 # 13: C
 2.51101007 3.95225190 5.54784542 1 # 14: C
 3.42092153 2.90418894 7.55844048 1 # 15: C
 7.34793602 7.16907134 7.55471470 1 # 16: C
 2.37294435 3.03505981 6.61405838 1 # 17: C
 8.40023196 7.04459895 6.61405838 1 # 18: C
 5.35515302 6.48546956 8.16214046 2 # 19: H
 5.41637857 3.57351356 8.17220135 2 # 20: H
 9.06163264 5.97774329 4.78543563 2 # 21: H
 1.72755770 4.10197313 4.77983184 2 # 22: H
 3.32549279 2.19043067 8.40143371 2 # 23: H
 7.43361034 7.88698660 8.39540341 2 # 24: H
 1.45050316 2.42872055 6.70810905 2 # 25: H
 9.31611401 7.66085257 6.70795918 2 # 26: H
%endblock AtomicCoordinatesAndAtomicSpecies

NumberOfSpecies 4
%block ChemicalSpeciesLabel
 1 6 C
 2 1 H
 3 7 N
 4 8 O
%endblock ChemicalSpeciesLabel
