LatticeConstant 1.0 Ang
%block LatticeVectors
 50.00000000 0.00000000 0.00000000
 0.00000000 50.00000000 0.00000000
 0.00000000 0.00000000 50.00000000
%endblock LatticeVectors

NumberOfAtoms 26
AtomicCoordinatesFormat Ang
%block AtomicCoordinatesAndAtomicSpecies
 3.65526748 5.83814076 4.43282440 3 #  1: N
 7.10200930 4.24935715 4.43171108 3 #  2: N
 6.00936784 5.46598733 6.36388522 1 #  3: C
 4.75627648 4.62586073 6.36317502 1 #  4: C
 7.13054902 5.27560840 5.50054087 1 #  5: C
 3.63297154 4.81199028 5.50164235 1 #  6: C
 8.07601720 4.19597393 3.65874569 4 #  7: O
 2.67600418 5.88998536 3.66669413 4 #  8: O
 6.10798121 3.49912656 4.37635157 4 #  9: O
 4.64830831 6.58946374 4.36914653 4 # 10: O
 6.13415001 6.46528183 7.36915155 1 # 11: C
 4.63661751 3.62494102 7.36788781 1 # 12: C
 8.30783630 6.05224958 5.61206249 1 # 13: C
 2.45892713 4.03054491 5.61469361 1 # 14: C
 3.46686822 2.83512017 7.49189413 1 # 15: C
 7.30854116 7.24816734 7.49407290 1 # 16: C
 2.37294435 3.03505981 6.61405838 1 # 17: C
 8.40023196 7.04459895 6.61405838 1 # 18: C
 5.27906439 6.63537482 8.05368964 2 # 19: H
 5.49195749 3.45990052 8.05332944 2 # 20: H
 9.12602432 5.84483051 4.89554910 2 # 21: H
 1.63810412 4.23644305 4.90061066 2 # 22: H
 3.41262282 2.05945359 8.28220666 2 # 23: H
 7.36796414 8.02132962 8.28665658 2 # 24: H
 1.45525020 2.42158464 6.70827207 2 # 25: H
 9.32085289 7.65372891 6.70809884 2 # 26: H
%endblock AtomicCoordinatesAndAtomicSpecies

NumberOfSpecies 4
%block ChemicalSpeciesLabel
 1 6 C
 2 1 H
 3 7 N
 4 8 O
%endblock ChemicalSpeciesLabel
