LatticeConstant 1.0 Ang
%block LatticeVectors
 50.00000000 0.00000000 0.00000000
 0.00000000 50.00000000 0.00000000
 0.00000000 0.00000000 50.00000000
%endblock LatticeVectors

NumberOfAtoms 26
AtomicCoordinatesFormat Ang
%block AtomicCoordinatesAndAtomicSpecies
 5.81811157 2.58687348 8.09370324 3 #  1: N
 4.94629983 7.24969460 8.12722959 3 #  2: N
 6.06820299 5.37754415 6.84514643 1 #  3: C
 4.80941309 4.54598382 6.84770514 1 #  4: C
 6.11170196 6.69191472 7.40119740 1 #  5: C
 4.68616474 3.22879128 7.38483680 1 #  6: C
 5.08183146 8.36475734 8.66321740 4 #  7: O
 5.61491870 1.47210030 8.60808972 4 #  8: O
 3.90076029 6.57125916 8.15120634 4 #  9: O
 6.90448625 3.19789355 8.12710523 4 # 10: O
 7.22977670 4.93291110 6.15393845 1 # 11: C
 3.67287469 5.07367490 6.17285040 1 # 12: C
 7.25702276 7.51608007 7.29821352 1 # 13: C
 3.48993568 2.48069469 7.27898185 1 # 14: C
 2.46879251 4.33546451 6.05998107 1 # 15: C
 8.38251354 5.74903666 6.04059619 1 # 16: C
 2.37294435 3.03505981 6.61405838 1 # 17: C
 8.40023196 7.04459895 6.61405838 1 # 18: C
 7.22466596 3.91627480 5.71221461 2 # 19: H
 3.74021956 6.09317781 5.74302072 2 # 20: H
 7.20858029 8.51823532 7.76638435 2 # 21: H
 3.47861928 1.46971255 7.73047490 2 # 22: H
 1.60138152 4.78217853 5.53344535 2 # 23: H
 9.27122919 5.36700045 5.49862504 2 # 24: H
 1.43440842 2.45291476 6.52660539 2 # 25: H
 9.29977717 7.68541071 6.52685451 2 # 26: H
%endblock AtomicCoordinatesAndAtomicSpecies

NumberOfSpecies 4
%block ChemicalSpeciesLabel
 1 6 C
 2 1 H
 3 7 N
 4 8 O
%endblock ChemicalSpeciesLabel
