LatticeConstant 1.0 Ang
%block LatticeVectors
 50.00000000 0.00000000 0.00000000
 0.00000000 50.00000000 0.00000000
 0.00000000 0.00000000 50.00000000
%endblock LatticeVectors

NumberOfAtoms 26
AtomicCoordinatesFormat Ang
%block AtomicCoordinatesAndAtomicSpecies
 2.80369404 5.96989079 4.27726166 3 #  1: N
 4.58829111 7.56552412 5.53660777 3 #  2: N
 5.71990247 5.36333597 5.01013428 1 #  3: C
 4.53013180 4.56589209 5.48403320 1 #  4: C
 5.76885787 6.78798844 5.09151942 1 #  5: C
 3.16415184 4.85880486 5.18907960 1 #  6: C
 4.72592556 8.79524266 5.67027050 4 #  7: O
 1.59955150 6.11653605 3.99952804 4 #  8: O
 3.52909307 6.94161449 5.74358297 4 #  9: O
 3.72519530 6.69243976 3.84897486 4 # 10: O
 6.89761183 4.70408074 4.55946401 1 # 11: C
 4.77718244 3.48836820 6.38042294 1 # 12: C
 6.93368535 7.52173755 4.76532448 1 # 13: C
 2.09725087 4.10777640 5.73634216 1 # 14: C
 3.71821332 2.72794342 6.93526209 1 # 15: C
 8.07007855 5.42671695 4.22655511 1 # 16: C
 2.37294435 3.03505981 6.61405838 1 # 17: C
 8.09223712 6.83971120 4.32956326 1 # 18: C
 6.88869512 3.59803630 4.48678923 2 # 19: H
 5.82810296 3.23964001 6.63017367 2 # 20: H
 6.88780323 8.62342240 4.86547965 2 # 21: H
 1.06827105 4.39852228 5.44872040 2 # 22: H
 3.94943899 1.89072379 7.62431441 2 # 23: H
 8.97079118 4.87849962 3.88351803 2 # 24: H
 1.54126984 2.44487972 7.04695045 2 # 25: H
 9.00484832 7.40966150 4.06551159 2 # 26: H
%endblock AtomicCoordinatesAndAtomicSpecies

NumberOfSpecies 4
%block ChemicalSpeciesLabel
 1 6 C
 2 1 H
 3 7 N
 4 8 O
%endblock ChemicalSpeciesLabel
