LatticeConstant 1.0 Ang
%block LatticeVectors
 50.00000000 0.00000000 0.00000000
 0.00000000 50.00000000 0.00000000
 0.00000000 0.00000000 50.00000000
%endblock LatticeVectors

NumberOfAtoms 26
AtomicCoordinatesFormat Ang
%block AtomicCoordinatesAndAtomicSpecies
 2.80369404 5.96989079 4.27726166 3 #  1: N
 6.30166777 3.72257817 3.17252326 3 #  2: N
 5.71990247 5.36333597 5.01013428 1 #  3: C
 4.53013180 4.56589209 5.48403320 1 #  4: C
 6.59165314 4.94421029 3.95987752 1 #  5: C
 3.16415184 4.85880486 5.18907960 1 #  6: C
 7.05288172 3.46321130 2.21470121 4 #  7: O
 1.59955150 6.11653605 3.99952804 4 #  8: O
 5.32778092 3.02699874 3.52140162 4 #  9: O
 3.72519530 6.69243976 3.84897486 4 # 10: O
 6.08738078 6.54078753 5.71956221 1 # 11: C
 4.77718244 3.48836820 6.38042294 1 # 12: C
 7.75691575 5.66812281 3.61386068 1 # 13: C
 2.09725087 4.10777640 5.73634216 1 # 14: C
 3.71821332 2.72794342 6.93526209 1 # 15: C
 7.25315067 7.27370446 5.38561165 1 # 16: C
 2.37294435 3.03505981 6.61405838 1 # 17: C
 8.09223712 6.83971120 4.32956326 1 # 18: C
 5.42893277 6.89014587 6.53998308 2 # 19: H
 5.82810296 3.23964001 6.63017367 2 # 20: H
 8.37180200 5.27752180 2.78007923 2 # 21: H
 1.06827105 4.39852228 5.44872040 2 # 22: H
 3.94943899 1.89072379 7.62431441 2 # 23: H
 7.50520046 8.18958705 5.95756436 2 # 24: H
 1.54126984 2.44487972 7.04695045 2 # 25: H
 9.00484832 7.40966150 4.06551159 2 # 26: H
%endblock AtomicCoordinatesAndAtomicSpecies

NumberOfSpecies 4
%block ChemicalSpeciesLabel
 1 6 C
 2 1 H
 3 7 N
 4 8 O
%endblock ChemicalSpeciesLabel
