LatticeConstant 1.0 Ang
%block LatticeVectors
 31.97365791 0.00000000 0.00000000
 0.00000000 8.52000000 0.00000000
 0.00000000 0.00000000 50.00000000
%endblock LatticeVectors

NumberOfAtoms 100
AtomicCoordinatesFormat Ang
%block AtomicCoordinatesAndAtomicSpecies
  0.00000000  7.10000000  0.00000000 1 #   1: C
  1.22975607  6.39000000  0.00000000 1 #   2: C
  1.22975607  4.97000000  0.00000000 1 #   3: C
  0.00000000  4.26000000  0.00000000 1 #   4: C
  1.22975607  2.13000000  0.00000000 1 #   5: C
  1.22975607  0.71000000  0.00000000 1 #   6: C
  2.45951215  7.10000000  0.00000000 1 #   7: C
  3.68926822  6.39000000  0.00000000 1 #   8: C
  3.68926822  4.97000000  0.00000000 1 #   9: C
  2.45951215  4.26000000  0.00000000 1 #  10: C
  2.45951215  2.84000000  0.00000000 1 #  11: C
  3.68926822  2.13000000  0.00000000 1 #  12: C
  3.68926822  0.71000000  0.00000000 1 #  13: C
  2.45951215  0.00000000  0.00000000 1 #  14: C
  4.91902429  7.10000000  0.00000000 1 #  15: C
  6.14878037  6.39000000  0.00000000 1 #  16: C
  6.14878037  4.97000000  0.00000000 2 #  17: H
  4.91902429  4.26000000  0.00000000 2 #  18: H
  4.91902429  2.84000000  0.00000000 2 #  19: H
  6.14878037  2.13000000  0.00000000 2 #  20: H
  6.14878037  0.71000000  0.00000000 1 #  21: C
  4.91902429  0.00000000  0.00000000 1 #  22: C
  7.37853644  7.10000000  0.00000000 1 #  23: C
  8.60829251  6.39000000  0.00000000 1 #  24: C
  8.60829251  4.97000000  0.00000000 1 #  25: C
  7.37853644  4.26000000  0.00000000 2 #  26: H
  8.60829251  0.71000000  0.00000000 2 #  27: H
  7.37853644  0.00000000  0.00000000 1 #  28: C
  9.83804859  7.10000000  0.00000000 1 #  29: C
 11.06780466  6.39000000  0.00000000 1 #  30: C
 11.06780466  4.97000000  0.00000000 1 #  31: C
  9.83804859  4.26000000  0.00000000 1 #  32: C
  9.83804859  2.84000000  0.00000000 2 #  33: H
 11.06780466  2.13000000  0.00000000 2 #  34: H
 11.06780466  0.71000000  0.00000000 2 #  35: H
  9.83804859  0.00000000  0.00000000 2 #  36: H
 12.29756073  7.10000000  0.00000000 1 #  37: C
 13.52731681  6.39000000  0.00000000 1 #  38: C
 13.52731681  4.97000000  0.00000000 1 #  39: C
 12.29756073  4.26000000  0.00000000 1 #  40: C
 12.29756073  2.84000000  0.00000000 1 #  41: C
 13.52731681  2.13000000  0.00000000 1 #  42: C
 13.52731681  0.71000000  0.00000000 1 #  43: C
 12.29756073  0.00000000  0.00000000 1 #  44: C
 14.75707288  7.10000000  0.00000000 1 #  45: C
 15.98682895  6.39000000  0.00000000 1 #  46: C
 15.98682895  4.97000000  0.00000000 1 #  47: C
 14.75707288  4.26000000  0.00000000 1 #  48: C
 14.75707288  2.84000000  0.00000000 1 #  49: C
 15.98682895  2.13000000  0.00000000 1 #  50: C
 15.98682895  0.71000000  0.00000000 1 #  51: C
 14.75707288  0.00000000  0.00000000 1 #  52: C
 17.21658503  7.10000000  0.00000000 1 #  53: C
 18.44634110  6.39000000  0.00000000 1 #  54: C
 18.44634110  4.97000000  0.00000000 1 #  55: C
 17.21658503  4.26000000  0.00000000 1 #  56: C
 17.21658503  2.84000000  0.00000000 1 #  57: C
 18.44634110  2.13000000  0.00000000 1 #  58: C
 18.44634110  0.71000000  0.00000000 1 #  59: C
 17.21658503  0.00000000  0.00000000 1 #  60: C
 19.67609717  7.10000000  0.00000000 1 #  61: C
 20.90585325  6.39000000  0.00000000 1 #  62: C
 20.90585325  4.97000000  0.00000000 1 #  63: C
 19.67609717  4.26000000  0.00000000 1 #  64: C
 19.67609717  2.84000000  0.00000000 1 #  65: C
 20.90585325  2.13000000  0.00000000 2 #  66: H
 20.90585325  0.71000000  0.00000000 2 #  67: H
 19.67609717  0.00000000  0.00000000 1 #  68: C
 22.13560932  7.10000000  0.00000000 1 #  69: C
 23.36536539  6.39000000  0.00000000 1 #  70: C
 23.36536539  4.97000000  0.00000000 1 #  71: C
 22.13560932  4.26000000  0.00000000 1 #  72: C
 22.13560932  2.84000000  0.00000000 2 #  73: H
 23.36536539  0.71000000  0.00000000 2 #  74: H
 22.13560932  0.00000000  0.00000000 2 #  75: H
 24.59512147  7.10000000  0.00000000 1 #  76: C
 25.82487754  6.39000000  0.00000000 1 #  77: C
 25.82487754  4.97000000  0.00000000 2 #  78: H
 24.59512147  4.26000000  0.00000000 2 #  79: H
 25.82487754  2.13000000  0.00000000 2 #  80: H
 25.82487754  0.71000000  0.00000000 1 #  81: C
 24.59512147  0.00000000  0.00000000 1 #  82: C
 27.05463361  7.10000000  0.00000000 1 #  83: C
 28.28438969  6.39000000  0.00000000 1 #  84: C
 28.28438969  4.97000000  0.00000000 1 #  85: C
 27.05463361  4.26000000  0.00000000 2 #  86: H
 27.05463361  2.84000000  0.00000000 2 #  87: H
 28.28438969  2.13000000  0.00000000 1 #  88: C
 28.28438969  0.71000000  0.00000000 1 #  89: C
 27.05463361  0.00000000  0.00000000 1 #  90: C
 29.51414576  7.10000000  0.00000000 1 #  91: C
 30.74390183  6.39000000  0.00000000 1 #  92: C
 30.74390183  4.97000000  0.00000000 1 #  93: C
 29.51414576  4.26000000  0.00000000 1 #  94: C
 29.51414576  2.84000000  0.00000000 1 #  95: C
 30.74390183  2.13000000  0.00000000 1 #  96: C
 30.74390183  0.71000000  0.00000000 1 #  97: C
 29.51414576  0.00000000  0.00000000 1 #  98: C
 31.97365791  2.84000000  0.00000000 1 #  99: C
 31.97365791  0.00000000  0.00000000 1 # 100: C
%endblock AtomicCoordinatesAndAtomicSpecies

NumberOfSpecies 2
%block ChemicalSpeciesLabel
 1 6 C
 2 1 H
%endblock ChemicalSpeciesLabel
