LatticeConstant 1.0 Ang
%block LatticeVectors
 4.29000000 0.00000000 0.00000000
 0.00000000 29.90733062 0.00000000
 0.00000000 0.00000000 14.30000000
%endblock LatticeVectors

NumberOfAtoms 14
AtomicCoordinatesFormat Ang
%block AtomicCoordinatesAndAtomicSpecies
  0.00000000 11.23841633  0.00000000 1 #  1: C
  0.00000000 13.71524898  0.00000000 1 #  2: C
  0.00000000 16.19208164  0.00000000 1 #  3: C
  0.71500000 10.00000000  0.00000000 1 #  4: C
  0.71500000 12.47683265  0.00000000 1 #  5: C
  0.71500000 14.95366531  0.00000000 1 #  6: C
  0.71500000 17.43049796  0.00000000 1 #  7: C
  2.14500000 10.00000000  0.00000000 1 #  8: C
  2.14500000 12.47683265  0.00000000 1 #  9: C
  2.14500000 14.95366531  0.00000000 1 # 10: C
  2.14500000 17.43049796  0.00000000 1 # 11: C
  2.86000000 11.23841633  0.00000000 1 # 12: C
  2.86000000 13.71524898  0.00000000 1 # 13: C
  2.86000000 16.19208164  0.00000000 1 # 14: C
%endblock AtomicCoordinatesAndAtomicSpecies

NumberOfSpecies 1
%block ChemicalSpeciesLabel
 1 6 C
%endblock ChemicalSpeciesLabel
