LatticeConstant 1.0 Ang
%block LatticeVectors
 47.46660458 0.00000000 0.00000000
 0.00000000 8.68988381 0.00000000
 0.00000000 0.00000000 19.99999059
%endblock LatticeVectors

NumberOfAtoms 148
AtomicCoordinatesFormat Ang
%block AtomicCoordinatesAndAtomicSpecies
  6.01819587  2.48148408 11.45995404 1 #   1: H
  4.39073447  3.38305347 11.32392202 1 #   2: H
  4.39926621  5.24526869 11.27462893 1 #   3: H
  6.08487385  6.17541224 11.10230076 1 #   4: H
 42.51713561  5.24584147 11.29300015 1 #   5: H
 42.52607932  3.38340536 11.24870905 1 #   6: H
 40.89994837  2.48349416 11.11869880 1 #   7: H
 40.83158422  6.17663468 11.46531577 1 #   8: H
  8.20252394  7.42689525 11.07118365 1 #   9: H
 29.75032663  4.48849923 11.09706103 1 #  10: H
 17.16159521  4.48907668 11.48630182 1 #  11: H
 14.98270259  8.23084229 11.03610056 1 #  12: H
 31.92715225  8.22946182 11.56600239 1 #  13: H
 29.80824637  0.78890558 11.52868140 1 #  14: H
 28.12902124  1.71932091 11.30229793 1 #  15: H
 28.12144506  3.58225375 11.24142408 1 #  16: H
 18.78874692  3.58271364 11.33661414 1 #  17: H
 18.78162420  1.71957427 11.27928573 1 #  18: H
 17.10123241  0.79058560 11.06988020 1 #  19: H
 38.71458429  7.42881027 11.49995437 1 #  20: H
 45.94081942  5.76255901 11.28222915 2 #  21: C
 45.93642797  7.20984307 11.28313264 2 #  22: C
 47.19164394  7.93755804 11.28397123 2 #  23: C
 47.19151516  5.03360738 11.28389370 2 #  24: C
 47.19159383  3.59149788 11.28365403 2 #  25: C
  0.97574653  5.76225493 11.28590513 2 #  26: C
  0.98028921  7.20961211 11.28502201 2 #  27: C
  3.44183667  5.79366324 11.27460398 2 #  28: C
  3.48391148  7.20494781 11.26542668 2 #  29: C
  2.22958471  7.93339085 11.28484238 2 #  30: C
  2.22918966  5.04719517 11.28996122 2 #  31: C
  2.22624059  3.57864981 11.30459836 2 #  32: C
  4.76671505  7.94114040 11.24778807 2 #  33: C
  6.03672838  7.27937504 11.17522748 2 #  34: C
  7.25022800  7.98668565 11.16903029 2 #  35: C
 40.88004936  7.28063847 11.39372373 2 #  36: C
 39.66686353  7.98854160 11.40175993 2 #  37: C
 42.15026318  7.94190219 11.32138536 2 #  38: C
 43.47461150  5.79404250 11.29356098 2 #  39: C
 43.43289344  7.20533385 11.30325139 2 #  40: C
 44.68730747  7.93372395 11.28390822 2 #  41: C
 44.68746381  5.04765083 11.27847040 2 #  42: C
 44.69054200  3.57913513 11.26430512 2 #  43: C
 45.93819591  1.41496788 11.27337233 2 #  44: C
 45.94229356  2.86250371 11.27191110 2 #  45: C
 47.19170468  0.68648374 11.28393830 2 #  46: C
  0.97434361  2.86223801 11.29590071 2 #  47: C
  0.97874767  1.41468663 11.29470986 2 #  48: C
  3.47681645  1.42130505 11.31963104 2 #  49: C
  3.43597137  2.83150457 11.32040457 2 #  50: C
  2.22706902  0.69010728 11.29974617 2 #  51: C
  4.76293120  0.68998606 11.30609829 2 #  52: C
  6.01081010  1.38247098 11.33944625 2 #  53: C
  7.26222375  0.72647042 11.25921837 2 #  54: C
 40.90694094  1.38400800 11.23486624 2 #  55: C
 39.65544872  0.72861342 11.31499059 2 #  56: C
 42.15434720  0.69075008 11.26509870 2 #  57: C
 43.48086927  2.83197498 11.25017121 2 #  58: C
 43.44048066  1.42180396 11.25039275 2 #  59: C
 44.69003496  0.69042155 11.26895390 2 #  60: C
 22.20045387  8.44460235 11.28915195 2 #  61: C
 22.20167662  5.54952103 11.29941509 2 #  62: C
 23.45505096  6.27781705 11.28669429 2 #  63: C
 23.45510571  7.71650762 11.28774186 2 #  64: C
 24.70994857  8.44446845 11.28725828 2 #  65: C
 24.70854725  5.54945812 11.27314024 2 #  66: C
 27.21285370  8.44959470 11.31423607 2 #  67: C
 27.20711739  5.54356225 11.24608894 2 #  68: C
 25.95899814  7.72067236 11.28844037 2 #  69: C
 25.95689432  6.27412902 11.26877250 2 #  70: C
 28.49295142  6.27590616 11.26660512 2 #  71: C
 28.49527956  7.71385289 11.33913488 2 #  72: C
 29.76337694  8.37621818 11.43576742 2 #  73: C
 29.74213979  5.58581641 11.23195866 2 #  74: C
 17.14705119  8.37749506 11.15710572 2 #  75: C
 17.16944133  5.58646731 11.35247036 2 #  76: C
 15.93325167  7.67134474 11.14958076 2 #  77: C
 15.91922359  6.24281063 11.25747996 2 #  78: C
 18.41805234  6.27660637 11.31418136 2 #  79: C
 18.41536442  7.71464240 11.24489338 2 #  80: C
 19.69795023  8.44990335 11.26593273 2 #  81: C
 19.70362944  5.54390579 11.32933729 2 #  82: C
 20.95170141  7.72080376 11.28844107 2 #  83: C
 20.95371666  6.27431330 11.30571074 2 #  84: C
 30.97725225  7.67020298 11.44591416 2 #  85: C
 30.99231641  6.24189629 11.33230388 2 #  86: C
 22.20574983  4.10209182 11.30102705 2 #  87: C
 23.45488345  3.37278337 11.28630713 2 #  88: C
 23.45498496  1.93079178 11.28736335 2 #  89: C
 24.70418976  4.10194665 11.27114507 2 #  90: C
 27.16629138  4.13335587 11.24426432 2 #  91: C
 25.95632283  3.38585956 11.26160994 2 #  92: C
 25.95893447  1.91708663 11.28088384 2 #  93: C
 19.74393127  4.13368756 11.33092342 2 #  94: C
 20.95380503  3.38608352 11.31203751 2 #  95: C
 20.95148589  1.91735063 11.29549622 2 #  96: C
 22.20460600  1.20202244 11.29032525 2 #  97: C
 24.70553551  1.20193020 11.28570812 2 #  98: C
 27.17152815  1.17093457 11.30160780 2 #  99: C
 19.73900562  1.17116706 11.27812558 2 # 100: C
 11.55304838  1.68413309 13.52817064 3 # 101: N
 11.60746880  5.32622362 13.50281135 3 # 102: N
 12.22480549  3.89369518 11.50929462 2 # 103: C
 10.94956640  3.08758337 11.50969744 2 # 104: C
 12.53168755  4.96488737 12.40205748 2 # 105: C
 10.63864998  2.02695345 12.41362881 2 # 106: C
 11.97655919  6.20995237 14.29767765 4 # 107: O
 11.18064316  0.80476706 14.32606146 4 # 108: O
 10.51544218  4.72784536 13.56132446 4 # 109: O
 12.63986957  2.29149615 13.59600132 4 # 110: O
 13.16547982  3.62902499 10.47498229 2 # 111: C
 10.01685283  3.33430099 10.46337907 2 # 112: C
 13.72216391  5.72114685 12.29047083 2 # 113: C
  9.45249125  1.26399831 12.30073659 2 # 114: C
  8.82511147  2.57812910 10.33902248 2 # 115: C
 14.36017031  4.38051617 10.34974147 2 # 116: C
  8.53822074  1.53955043 11.25896213 2 # 117: C
 14.64322660  5.42973081 11.25896213 2 # 118: C
 12.95356495  2.80267271  9.76721861 1 # 119: H
 10.23318742  4.14992378  9.74460659 1 # 120: H
 13.88553391  6.52820741 13.03061220 1 # 121: H
  9.28660550  0.46479470 13.04894406 1 # 122: H
  8.11824189  2.80393477  9.51528569 1 # 123: H
 15.07236279  4.14241406  9.53390499 1 # 124: H
 35.28518134  5.28573104  9.06054138 3 # 125: N
 35.34167703  1.64367212  9.08590067 3 # 126: N
 35.95819737  3.07655208 11.07941740 2 # 127: C
 34.68249915  3.88193713 11.07901458 2 # 128: C
 36.26568975  2.00553493 10.18665454 2 # 129: C
 34.37097843  4.94238971 10.17508321 2 # 130: C
 35.71127092  0.76015382  8.29103437 4 # 131: O
 34.91227512  6.16488474  8.26265056 4 # 132: O
 34.24930963  2.24142804  9.02738757 4 # 133: O
 36.37234843  4.67898736  8.99271070 4 # 134: O
 36.89872073  3.34175824 12.11372973 2 # 135: C
 33.74992631  3.63468809 12.12533295 2 # 136: C
 37.45659683  1.24995391 10.29824119 2 # 137: C
 33.18438516  5.70466885 10.28797543 2 # 138: C
 32.55775428  4.39018079 12.24968954 2 # 139: C
 38.09383923  2.59094792 12.23897055 2 # 140: C
 32.27027181  5.42859582 11.32974989 2 # 141: C
 38.37749332  1.54189473 11.32974989 2 # 142: C
 36.68633503  4.16798963 12.82149341 1 # 143: H
 33.96672562  2.81918869 12.84410543 1 # 144: H
 37.62042667  0.44298657  9.55809982 1 # 145: H
 33.01804405  6.50377781  9.53976796 1 # 146: H
 31.85101348  4.16397238 13.07342633 1 # 147: H
 38.80589593  2.82945579 13.05480703 1 # 148: H
%endblock AtomicCoordinatesAndAtomicSpecies

NumberOfSpecies 4
%block ChemicalSpeciesLabel
 1 1 H
 2 6 C
 3 7 N
 4 8 O
%endblock ChemicalSpeciesLabel
