LatticeConstant 1.0 Ang
%block LatticeVectors
 50.00000000 0.00000000 0.00000000
 0.00000000 50.00000000 0.00000000
 0.00000000 0.00000000 50.00000000
%endblock LatticeVectors

NumberOfAtoms 26
AtomicCoordinatesFormat Ang
%block AtomicCoordinatesAndAtomicSpecies
2.9724 6.0009 4.2129 3 # 1: N
5.5314 4.4209 2.7389 3 # 2: N
5.7694 5.3289 5.1039 1 # 3: C
4.5714 4.5739 5.5869 1 # 4: C
6.2084 5.2819 3.7479 1 # 5: C
3.2484 4.8719 5.1449 1 # 6: C
5.4684 4.8359 1.5849 4 # 7: O
2.0574 5.8649 3.4059 4 # 8: O
5.2174 3.2819 3.0729 4 # 9: O
3.5594 7.0619 4.4069 4 # 10: O
6.4824 6.1419 6.0169 1 # 11: C
4.7544 3.5079 6.4989 1 # 12: C
7.3154 6.0559 3.3419 1 # 13: C
2.1644 4.0919 5.5999 1 # 14: C
3.6684 2.7429 6.9479 1 # 15: C
7.5844 6.9029 5.6019 1 # 16: C
2.3744 3.0329 6.4949 1 # 17: C
7.9974 6.8629 4.2649 1 # 18: C
6.1624 6.1919 7.0539 2 # 19: H
5.7544 3.2649 6.8479 2 # 20: H
7.6594 6.0259 2.3119 2 # 21: H
1.1524 4.3109 5.2709 2 # 22: H
3.8304 1.9229 7.6419 2 # 23: H
8.1134 7.5279 6.3169 2 # 24: H
1.5324 2.4399 6.8419 2 # 25: H
8.8504 7.4539 3.9419 2 # 26: H
%endblock AtomicCoordinatesAndAtomicSpecies

NumberOfSpecies 4
%block ChemicalSpeciesLabel
 1 6 C
 2 1 H
 3 7 N
 4 8 O
%endblock ChemicalSpeciesLabel
