#####################
#                   #
# Species and atoms #
#                   #
#####################

NumberOfAtoms      30 
NumberOfSpecies    2

%block ChemicalSpeciesLabel
  1    1  H
  2    6  C
%endblock ChemicalSpeciesLabel

########################
#                      #
# Define periodic cell #
#                      #
########################

LatticeConstant       1.00 Ang

%block LatticeVectors
 50.0000000 0.00000000 0.00000000
 0.00000000 4.26600000 0.00000000
 0.00000000 0.00000000 50.00000000
%endblock LatticeVectors

######################
#                    #
# Atomic coordinates #
#                    #
######################

AtomicCoordinatesFormat  Ang 

%block AtomicCoordinatesAndAtomicSpecies
  7.49999794  2.68300000 25.00000000 1 #  1: H
  7.49999794  0.16100000 25.00000000 1 #  2: H
 24.18311919  0.16100000 25.00000000 1 #  3: H
 24.18311919  2.68300000 25.00000000 1 #  4: H
  9.68411606  0.00000000 25.00000000 2 #  5: C
  8.45262794  0.71100000 25.00000000 2 #  6: C
  8.45262794  2.13300000 25.00000000 2 #  7: C
  9.68411606  2.84400000 25.00000000 2 #  8: C
 12.14709231  0.00000000 25.00000000 2 #  9: C
 10.91560419  0.71100000 25.00000000 2 # 10: C
 10.91560419  2.13300000 25.00000000 2 # 11: C
 12.14709231  2.84400000 25.00000000 2 # 12: C
 14.61006856  0.00000000 25.00000000 2 # 13: C
 13.37858044  0.71100000 25.00000000 2 # 14: C
 13.37858044  2.13300000 25.00000000 2 # 15: C
 14.61006856  2.84400000 25.00000000 2 # 16: C
 17.07304480  0.00000000 25.00000000 2 # 17: C
 15.84155668  0.71100000 25.00000000 2 # 18: C
 15.84155668  2.13300000 25.00000000 2 # 19: C
 17.07304480  2.84400000 25.00000000 2 # 20: C
 19.53602105  0.00000000 25.00000000 2 # 21: C
 18.30453293  0.71100000 25.00000000 2 # 22: C
 18.30453293  2.13300000 25.00000000 2 # 23: C
 19.53602105  2.84400000 25.00000000 2 # 24: C
 21.99899730  0.00000000 25.00000000 2 # 25: C
 20.76750918  0.71100000 25.00000000 2 # 26: C
 20.76750918  2.13300000 25.00000000 2 # 27: C
 21.99899730  2.84400000 25.00000000 2 # 28: C
 23.23048543  0.71100000 25.00000000 2 # 29: C
 23.23048543  2.13300000 25.00000000 2 # 30: C
%endblock AtomicCoordinatesAndAtomicSpecies
