LatticeConstant 1.0 Ang
%block LatticeVectors
 93.46146158 0.00000000 0.00000000
 0.00000000 8.52000000 0.00000000
 0.00000000 0.00000000 50.00000000
%endblock LatticeVectors

NumberOfAtoms 280
AtomicCoordinatesFormat Ang
%block AtomicCoordinatesAndAtomicSpecies
  0.00000000  0.00000000  0.00000000 2 #   1: H
  0.00000000  2.84000000  0.00000000 1 #   2: C
  0.00000000  4.26000000  0.00000000 1 #   3: C
  1.22975607  0.71000000  0.00000000 2 #   4: H
  1.22975607  2.13000000  0.00000000 1 #   5: C
  1.22975607  4.97000000  0.00000000 1 #   6: C
  1.22975607  6.39000000  0.00000000 2 #   7: H
  2.45951215  0.00000000  0.00000000 2 #   8: H
  2.45951215  2.84000000  0.00000000 1 #   9: C
  2.45951215  4.26000000  0.00000000 1 #  10: C
  2.45951215  7.10000000  0.00000000 2 #  11: H
  3.68926822  0.71000000  0.00000000 1 #  12: C
  3.68926822  2.13000000  0.00000000 1 #  13: C
  3.68926822  4.97000000  0.00000000 1 #  14: C
  3.68926822  6.39000000  0.00000000 1 #  15: C
  4.91902429  0.00000000  0.00000000 1 #  16: C
  4.91902429  2.84000000  0.00000000 1 #  17: C
  4.91902429  4.26000000  0.00000000 1 #  18: C
  4.91902429  7.10000000  0.00000000 1 #  19: C
  6.14878037  0.71000000  0.00000000 1 #  20: C
  6.14878037  2.13000000  0.00000000 1 #  21: C
  6.14878037  4.97000000  0.00000000 1 #  22: C
  6.14878037  6.39000000  0.00000000 1 #  23: C
  7.37853644  0.00000000  0.00000000 1 #  24: C
  7.37853644  2.84000000  0.00000000 1 #  25: C
  7.37853644  4.26000000  0.00000000 1 #  26: C
  7.37853644  7.10000000  0.00000000 1 #  27: C
  8.60829251  0.71000000  0.00000000 1 #  28: C
  8.60829251  2.13000000  0.00000000 1 #  29: C
  8.60829251  4.97000000  0.00000000 1 #  30: C
  8.60829251  6.39000000  0.00000000 1 #  31: C
  9.83804859  0.00000000  0.00000000 1 #  32: C
  9.83804859  2.84000000  0.00000000 1 #  33: C
  9.83804859  4.26000000  0.00000000 1 #  34: C
  9.83804859  7.10000000  0.00000000 1 #  35: C
 11.06780466  0.71000000  0.00000000 1 #  36: C
 11.06780466  2.13000000  0.00000000 1 #  37: C
 11.06780466  4.97000000  0.00000000 1 #  38: C
 11.06780466  6.39000000  0.00000000 1 #  39: C
 12.29756073  0.00000000  0.00000000 2 #  40: H
 12.29756073  2.84000000  0.00000000 1 #  41: C
 12.29756073  4.26000000  0.00000000 1 #  42: C
 12.29756073  7.10000000  0.00000000 2 #  43: H
 13.52731681  0.71000000  0.00000000 2 #  44: H
 13.52731681  2.13000000  0.00000000 1 #  45: C
 13.52731681  4.97000000  0.00000000 1 #  46: C
 13.52731681  6.39000000  0.00000000 2 #  47: H
 14.75707288  2.84000000  0.00000000 1 #  48: C
 14.75707288  4.26000000  0.00000000 1 #  49: C
 14.75707288  7.10000000  0.00000000 2 #  50: H
 15.98682895  2.13000000  0.00000000 2 #  51: H
 15.98682895  4.97000000  0.00000000 1 #  52: C
 15.98682895  6.39000000  0.00000000 1 #  53: C
 17.21658503  0.00000000  0.00000000 2 #  54: H
 17.21658503  2.84000000  0.00000000 2 #  55: H
 17.21658503  4.26000000  0.00000000 1 #  56: C
 17.21658503  7.10000000  0.00000000 1 #  57: C
 18.44634110  0.71000000  0.00000000 2 #  58: H
 18.44634110  4.97000000  0.00000000 1 #  59: C
 18.44634110  6.39000000  0.00000000 1 #  60: C
 19.67609717  0.00000000  0.00000000 1 #  61: C
 19.67609717  4.26000000  0.00000000 2 #  62: H
 19.67609717  7.10000000  0.00000000 1 #  63: C
 20.90585325  0.71000000  0.00000000 1 #  64: C
 20.90585325  2.13000000  0.00000000 2 #  65: H
 20.90585325  4.97000000  0.00000000 2 #  66: H
 20.90585325  6.39000000  0.00000000 1 #  67: C
 22.13560932  0.00000000  0.00000000 1 #  68: C
 22.13560932  2.84000000  0.00000000 2 #  69: H
 22.13560932  7.10000000  0.00000000 1 #  70: C
 23.36536539  0.71000000  0.00000000 1 #  71: C
 23.36536539  2.13000000  0.00000000 1 #  72: C
 23.36536539  6.39000000  0.00000000 2 #  73: H
 24.59512147  0.00000000  0.00000000 1 #  74: C
 24.59512147  2.84000000  0.00000000 1 #  75: C
 24.59512147  4.26000000  0.00000000 2 #  76: H
 24.59512147  7.10000000  0.00000000 2 #  77: H
 25.82487754  0.71000000  0.00000000 1 #  78: C
 25.82487754  2.13000000  0.00000000 1 #  79: C
 25.82487754  4.97000000  0.00000000 2 #  80: H
 25.82487754  6.39000000  0.00000000 2 #  81: H
 27.05463361  0.00000000  0.00000000 1 #  82: C
 27.05463361  2.84000000  0.00000000 1 #  83: C
 27.05463361  4.26000000  0.00000000 1 #  84: C
 27.05463361  7.10000000  0.00000000 1 #  85: C
 28.28438969  0.71000000  0.00000000 1 #  86: C
 28.28438969  2.13000000  0.00000000 1 #  87: C
 28.28438969  4.97000000  0.00000000 1 #  88: C
 28.28438969  6.39000000  0.00000000 1 #  89: C
 29.51414576  0.00000000  0.00000000 1 #  90: C
 29.51414576  2.84000000  0.00000000 1 #  91: C
 29.51414576  4.26000000  0.00000000 1 #  92: C
 29.51414576  7.10000000  0.00000000 1 #  93: C
 30.74390183  0.71000000  0.00000000 1 #  94: C
 30.74390183  2.13000000  0.00000000 1 #  95: C
 30.74390183  4.97000000  0.00000000 1 #  96: C
 30.74390183  6.39000000  0.00000000 1 #  97: C
 31.97365791  0.00000000  0.00000000 1 #  98: C
 31.97365791  2.84000000  0.00000000 1 #  99: C
 31.97365791  4.26000000  0.00000000 1 # 100: C
 31.97365791  7.10000000  0.00000000 1 # 101: C
 33.20341398  0.71000000  0.00000000 1 # 102: C
 33.20341398  2.13000000  0.00000000 1 # 103: C
 33.20341398  4.97000000  0.00000000 1 # 104: C
 33.20341398  6.39000000  0.00000000 1 # 105: C
 34.43317005  0.00000000  0.00000000 1 # 106: C
 34.43317005  2.84000000  0.00000000 1 # 107: C
 34.43317005  4.26000000  0.00000000 1 # 108: C
 34.43317005  7.10000000  0.00000000 1 # 109: C
 35.66292613  0.71000000  0.00000000 1 # 110: C
 35.66292613  2.13000000  0.00000000 1 # 111: C
 35.66292613  4.97000000  0.00000000 2 # 112: H
 35.66292613  6.39000000  0.00000000 2 # 113: H
 36.89268220  0.00000000  0.00000000 1 # 114: C
 36.89268220  2.84000000  0.00000000 1 # 115: C
 36.89268220  4.26000000  0.00000000 2 # 116: H
 36.89268220  7.10000000  0.00000000 2 # 117: H
 38.12243827  0.71000000  0.00000000 1 # 118: C
 38.12243827  2.13000000  0.00000000 1 # 119: C
 38.12243827  4.97000000  0.00000000 2 # 120: H
 39.35219435  0.00000000  0.00000000 2 # 121: H
 39.35219435  2.84000000  0.00000000 1 # 122: C
 39.35219435  4.26000000  0.00000000 1 # 123: C
 40.58195042  0.71000000  0.00000000 2 # 124: H
 40.58195042  2.13000000  0.00000000 1 # 125: C
 40.58195042  4.97000000  0.00000000 1 # 126: C
 40.58195042  6.39000000  0.00000000 2 # 127: H
 41.81170649  2.84000000  0.00000000 1 # 128: C
 41.81170649  4.26000000  0.00000000 1 # 129: C
 41.81170649  7.10000000  0.00000000 2 # 130: H
 43.04146257  2.13000000  0.00000000 2 # 131: H
 43.04146257  4.97000000  0.00000000 1 # 132: C
 43.04146257  6.39000000  0.00000000 1 # 133: C
 44.27121864  0.00000000  0.00000000 2 # 134: H
 44.27121864  2.84000000  0.00000000 2 # 135: H
 44.27121864  4.26000000  0.00000000 1 # 136: C
 44.27121864  7.10000000  0.00000000 1 # 137: C
 45.50097471  0.71000000  0.00000000 2 # 138: H
 45.50097471  4.97000000  0.00000000 1 # 139: C
 45.50097471  6.39000000  0.00000000 1 # 140: C
 46.73073079  0.00000000  0.00000000 1 # 141: C
 46.73073079  4.26000000  0.00000000 2 # 142: H
 46.73073079  7.10000000  0.00000000 1 # 143: C
 47.96048686  0.71000000  0.00000000 1 # 144: C
 47.96048686  2.13000000  0.00000000 2 # 145: H
 47.96048686  4.97000000  0.00000000 2 # 146: H
 47.96048686  6.39000000  0.00000000 1 # 147: C
 49.19024293  0.00000000  0.00000000 1 # 148: C
 49.19024293  2.84000000  0.00000000 2 # 149: H
 49.19024293  4.26000000  0.00000000 2 # 150: H
 49.19024293  7.10000000  0.00000000 1 # 151: C
 50.41999901  0.71000000  0.00000000 1 # 152: C
 50.41999901  2.13000000  0.00000000 1 # 153: C
 50.41999901  4.97000000  0.00000000 1 # 154: C
 50.41999901  6.39000000  0.00000000 1 # 155: C
 51.64975508  0.00000000  0.00000000 1 # 156: C
 51.64975508  2.84000000  0.00000000 1 # 157: C
 51.64975508  4.26000000  0.00000000 1 # 158: C
 51.64975508  7.10000000  0.00000000 1 # 159: C
 52.87951116  0.71000000  0.00000000 1 # 160: C
 52.87951116  2.13000000  0.00000000 1 # 161: C
 52.87951116  4.97000000  0.00000000 1 # 162: C
 52.87951116  6.39000000  0.00000000 1 # 163: C
 54.10926723  0.00000000  0.00000000 1 # 164: C
 54.10926723  2.84000000  0.00000000 1 # 165: C
 54.10926723  4.26000000  0.00000000 1 # 166: C
 54.10926723  7.10000000  0.00000000 1 # 167: C
 55.33902330  0.71000000  0.00000000 1 # 168: C
 55.33902330  2.13000000  0.00000000 1 # 169: C
 55.33902330  4.97000000  0.00000000 1 # 170: C
 55.33902330  6.39000000  0.00000000 1 # 171: C
 56.56877938  0.00000000  0.00000000 1 # 172: C
 56.56877938  2.84000000  0.00000000 1 # 173: C
 56.56877938  4.26000000  0.00000000 1 # 174: C
 56.56877938  7.10000000  0.00000000 1 # 175: C
 57.79853545  0.71000000  0.00000000 1 # 176: C
 57.79853545  2.13000000  0.00000000 1 # 177: C
 57.79853545  4.97000000  0.00000000 1 # 178: C
 57.79853545  6.39000000  0.00000000 1 # 179: C
 59.02829152  0.00000000  0.00000000 1 # 180: C
 59.02829152  2.84000000  0.00000000 2 # 181: H
 59.02829152  4.26000000  0.00000000 2 # 182: H
 59.02829152  7.10000000  0.00000000 1 # 183: C
 60.25804760  0.71000000  0.00000000 1 # 184: C
 60.25804760  2.13000000  0.00000000 2 # 185: H
 60.25804760  4.97000000  0.00000000 2 # 186: H
 60.25804760  6.39000000  0.00000000 1 # 187: C
 61.48780367  0.00000000  0.00000000 1 # 188: C
 61.48780367  2.84000000  0.00000000 2 # 189: H
 61.48780367  7.10000000  0.00000000 1 # 190: C
 62.71755974  0.71000000  0.00000000 1 # 191: C
 62.71755974  2.13000000  0.00000000 1 # 192: C
 62.71755974  6.39000000  0.00000000 2 # 193: H
 63.94731582  0.00000000  0.00000000 1 # 194: C
 63.94731582  2.84000000  0.00000000 1 # 195: C
 63.94731582  4.26000000  0.00000000 2 # 196: H
 63.94731582  7.10000000  0.00000000 2 # 197: H
 65.17707189  0.71000000  0.00000000 1 # 198: C
 65.17707189  2.13000000  0.00000000 1 # 199: C
 65.17707189  4.97000000  0.00000000 2 # 200: H
 66.40682796  0.00000000  0.00000000 2 # 201: H
 66.40682796  2.84000000  0.00000000 1 # 202: C
 66.40682796  4.26000000  0.00000000 1 # 203: C
 67.63658404  0.71000000  0.00000000 2 # 204: H
 67.63658404  2.13000000  0.00000000 1 # 205: C
 67.63658404  4.97000000  0.00000000 1 # 206: C
 67.63658404  6.39000000  0.00000000 2 # 207: H
 68.86634011  2.84000000  0.00000000 1 # 208: C
 68.86634011  4.26000000  0.00000000 1 # 209: C
 68.86634011  7.10000000  0.00000000 2 # 210: H
 70.09609618  2.13000000  0.00000000 2 # 211: H
 70.09609618  4.97000000  0.00000000 1 # 212: C
 70.09609618  6.39000000  0.00000000 1 # 213: C
 71.32585226  0.00000000  0.00000000 2 # 214: H
 71.32585226  2.84000000  0.00000000 2 # 215: H
 71.32585226  4.26000000  0.00000000 1 # 216: C
 71.32585226  7.10000000  0.00000000 1 # 217: C
 72.55560833  0.71000000  0.00000000 2 # 218: H
 72.55560833  2.13000000  0.00000000 2 # 219: H
 72.55560833  4.97000000  0.00000000 1 # 220: C
 72.55560833  6.39000000  0.00000000 1 # 221: C
 73.78536440  0.00000000  0.00000000 1 # 222: C
 73.78536440  2.84000000  0.00000000 1 # 223: C
 73.78536440  4.26000000  0.00000000 1 # 224: C
 73.78536440  7.10000000  0.00000000 1 # 225: C
 75.01512048  0.71000000  0.00000000 1 # 226: C
 75.01512048  2.13000000  0.00000000 1 # 227: C
 75.01512048  4.97000000  0.00000000 1 # 228: C
 75.01512048  6.39000000  0.00000000 1 # 229: C
 76.24487655  0.00000000  0.00000000 1 # 230: C
 76.24487655  2.84000000  0.00000000 1 # 231: C
 76.24487655  4.26000000  0.00000000 1 # 232: C
 76.24487655  7.10000000  0.00000000 1 # 233: C
 77.47463262  0.71000000  0.00000000 1 # 234: C
 77.47463262  2.13000000  0.00000000 1 # 235: C
 77.47463262  4.97000000  0.00000000 1 # 236: C
 77.47463262  6.39000000  0.00000000 1 # 237: C
 78.70438870  0.00000000  0.00000000 1 # 238: C
 78.70438870  2.84000000  0.00000000 1 # 239: C
 78.70438870  4.26000000  0.00000000 1 # 240: C
 78.70438870  7.10000000  0.00000000 1 # 241: C
 79.93414477  0.71000000  0.00000000 1 # 242: C
 79.93414477  2.13000000  0.00000000 1 # 243: C
 79.93414477  4.97000000  0.00000000 1 # 244: C
 79.93414477  6.39000000  0.00000000 1 # 245: C
 81.16390084  0.00000000  0.00000000 1 # 246: C
 81.16390084  2.84000000  0.00000000 1 # 247: C
 81.16390084  4.26000000  0.00000000 1 # 248: C
 81.16390084  7.10000000  0.00000000 1 # 249: C
 82.39365692  0.71000000  0.00000000 2 # 250: H
 82.39365692  2.13000000  0.00000000 2 # 251: H
 82.39365692  4.97000000  0.00000000 1 # 252: C
 82.39365692  6.39000000  0.00000000 1 # 253: C
 83.62341299  0.00000000  0.00000000 2 # 254: H
 83.62341299  2.84000000  0.00000000 2 # 255: H
 83.62341299  4.26000000  0.00000000 1 # 256: C
 83.62341299  7.10000000  0.00000000 1 # 257: C
 84.85316906  0.71000000  0.00000000 2 # 258: H
 84.85316906  4.97000000  0.00000000 1 # 259: C
 84.85316906  6.39000000  0.00000000 1 # 260: C
 86.08292514  0.00000000  0.00000000 1 # 261: C
 86.08292514  4.26000000  0.00000000 2 # 262: H
 86.08292514  7.10000000  0.00000000 1 # 263: C
 87.31268121  0.71000000  0.00000000 1 # 264: C
 87.31268121  2.13000000  0.00000000 2 # 265: H
 87.31268121  4.97000000  0.00000000 2 # 266: H
 87.31268121  6.39000000  0.00000000 1 # 267: C
 88.54243728  0.00000000  0.00000000 1 # 268: C
 88.54243728  2.84000000  0.00000000 2 # 269: H
 88.54243728  7.10000000  0.00000000 1 # 270: C
 89.77219336  0.71000000  0.00000000 1 # 271: C
 89.77219336  2.13000000  0.00000000 1 # 272: C
 89.77219336  6.39000000  0.00000000 2 # 273: H
 91.00194943  0.00000000  0.00000000 1 # 274: C
 91.00194943  2.84000000  0.00000000 1 # 275: C
 91.00194943  4.26000000  0.00000000 2 # 276: H
 91.00194943  7.10000000  0.00000000 2 # 277: H
 92.23170550  0.71000000  0.00000000 1 # 278: C
 92.23170550  2.13000000  0.00000000 1 # 279: C
 92.23170550  4.97000000  0.00000000 2 # 280: H
%endblock AtomicCoordinatesAndAtomicSpecies

NumberOfSpecies 2
%block ChemicalSpeciesLabel
 1 6 C
 2 1 H
%endblock ChemicalSpeciesLabel
