LatticeConstant 1.0 Ang
%block LatticeVectors
 46.73073079 0.00000000 0.00000000
 0.00000000 17.04000000 0.00000000
 0.00000000 0.00000000 50.00000000
%endblock LatticeVectors

NumberOfAtoms 280
AtomicCoordinatesFormat Ang
%block AtomicCoordinatesAndAtomicSpecies
  0.00000000  2.84000000  0.00000000 1 #   1: C
  0.00000000  4.26000000  0.00000000 1 #   2: C
  0.00000000  7.10000000  0.00000000 2 #   3: H
  1.22975607  0.71000000  0.00000000 2 #   4: H
  1.22975607  2.13000000  0.00000000 1 #   5: C
  1.22975607  4.97000000  0.00000000 1 #   6: C
  1.22975607  6.39000000  0.00000000 2 #   7: H
  2.45951215  0.00000000  0.00000000 2 #   8: H
  2.45951215  2.84000000  0.00000000 1 #   9: C
  2.45951215  4.26000000  0.00000000 1 #  10: C
  2.45951215  7.10000000  0.00000000 2 #  11: H
  3.68926822  0.71000000  0.00000000 1 #  12: C
  3.68926822  2.13000000  0.00000000 1 #  13: C
  3.68926822  4.97000000  0.00000000 1 #  14: C
  3.68926822  6.39000000  0.00000000 1 #  15: C
  4.91902429  0.00000000  0.00000000 1 #  16: C
  4.91902429  2.84000000  0.00000000 1 #  17: C
  4.91902429  4.26000000  0.00000000 1 #  18: C
  4.91902429  7.10000000  0.00000000 1 #  19: C
  6.14878037  0.71000000  0.00000000 1 #  20: C
  6.14878037  2.13000000  0.00000000 1 #  21: C
  6.14878037  4.97000000  0.00000000 1 #  22: C
  6.14878037  6.39000000  0.00000000 1 #  23: C
  7.37853644  0.00000000  0.00000000 1 #  24: C
  7.37853644  2.84000000  0.00000000 1 #  25: C
  7.37853644  4.26000000  0.00000000 1 #  26: C
  7.37853644  7.10000000  0.00000000 1 #  27: C
  8.60829251  0.71000000  0.00000000 1 #  28: C
  8.60829251  2.13000000  0.00000000 1 #  29: C
  8.60829251  4.97000000  0.00000000 1 #  30: C
  8.60829251  6.39000000  0.00000000 1 #  31: C
  9.83804859  0.00000000  0.00000000 1 #  32: C
  9.83804859  2.84000000  0.00000000 1 #  33: C
  9.83804859  4.26000000  0.00000000 1 #  34: C
  9.83804859  7.10000000  0.00000000 1 #  35: C
 11.06780466  0.71000000  0.00000000 1 #  36: C
 11.06780466  2.13000000  0.00000000 1 #  37: C
 11.06780466  4.97000000  0.00000000 1 #  38: C
 11.06780466  6.39000000  0.00000000 1 #  39: C
 12.29756073  0.00000000  0.00000000 2 #  40: H
 12.29756073  2.84000000  0.00000000 1 #  41: C
 12.29756073  4.26000000  0.00000000 1 #  42: C
 12.29756073  7.10000000  0.00000000 2 #  43: H
 13.52731681  0.71000000  0.00000000 2 #  44: H
 13.52731681  2.13000000  0.00000000 1 #  45: C
 13.52731681  4.97000000  0.00000000 1 #  46: C
 13.52731681  6.39000000  0.00000000 2 #  47: H
 14.75707288  2.84000000  0.00000000 1 #  48: C
 14.75707288  4.26000000  0.00000000 1 #  49: C
 14.75707288  7.10000000  0.00000000 2 #  50: H
 15.98682895  2.13000000  0.00000000 2 #  51: H
 15.98682895  4.97000000  0.00000000 1 #  52: C
 15.98682895  6.39000000  0.00000000 1 #  53: C
 17.21658503  0.00000000  0.00000000 2 #  54: H
 17.21658503  2.84000000  0.00000000 2 #  55: H
 17.21658503  4.26000000  0.00000000 1 #  56: C
 17.21658503  7.10000000  0.00000000 1 #  57: C
 18.44634110  0.71000000  0.00000000 2 #  58: H
 18.44634110  4.97000000  0.00000000 1 #  59: C
 18.44634110  6.39000000  0.00000000 1 #  60: C
 19.67609717  0.00000000  0.00000000 1 #  61: C
 19.67609717  4.26000000  0.00000000 2 #  62: H
 19.67609717  7.10000000  0.00000000 1 #  63: C
 20.90585325  0.71000000  0.00000000 1 #  64: C
 20.90585325  2.13000000  0.00000000 2 #  65: H
 20.90585325  4.97000000  0.00000000 2 #  66: H
 20.90585325  6.39000000  0.00000000 1 #  67: C
 22.13560932  0.00000000  0.00000000 1 #  68: C
 22.13560932  2.84000000  0.00000000 2 #  69: H
 22.13560932  7.10000000  0.00000000 1 #  70: C
 23.36536539  0.71000000  0.00000000 1 #  71: C
 23.36536539  2.13000000  0.00000000 1 #  72: C
 23.36536539  6.39000000  0.00000000 2 #  73: H
 24.59512147  0.00000000  0.00000000 1 #  74: C
 24.59512147  2.84000000  0.00000000 1 #  75: C
 24.59512147  4.26000000  0.00000000 2 #  76: H
 24.59512147  7.10000000  0.00000000 2 #  77: H
 25.82487754  0.71000000  0.00000000 1 #  78: C
 25.82487754  2.13000000  0.00000000 1 #  79: C
 25.82487754  4.97000000  0.00000000 2 #  80: H
 25.82487754  6.39000000  0.00000000 2 #  81: H
 27.05463361  0.00000000  0.00000000 1 #  82: C
 27.05463361  2.84000000  0.00000000 1 #  83: C
 27.05463361  4.26000000  0.00000000 1 #  84: C
 27.05463361  7.10000000  0.00000000 1 #  85: C
 28.28438969  0.71000000  0.00000000 1 #  86: C
 28.28438969  2.13000000  0.00000000 1 #  87: C
 28.28438969  4.97000000  0.00000000 1 #  88: C
 28.28438969  6.39000000  0.00000000 1 #  89: C
 29.51414576  0.00000000  0.00000000 1 #  90: C
 29.51414576  2.84000000  0.00000000 1 #  91: C
 29.51414576  4.26000000  0.00000000 1 #  92: C
 29.51414576  7.10000000  0.00000000 1 #  93: C
 30.74390183  0.71000000  0.00000000 1 #  94: C
 30.74390183  2.13000000  0.00000000 1 #  95: C
 30.74390183  4.97000000  0.00000000 1 #  96: C
 30.74390183  6.39000000  0.00000000 1 #  97: C
 31.97365791  0.00000000  0.00000000 1 #  98: C
 31.97365791  2.84000000  0.00000000 1 #  99: C
 31.97365791  4.26000000  0.00000000 1 # 100: C
 31.97365791  7.10000000  0.00000000 1 # 101: C
 33.20341398  0.71000000  0.00000000 1 # 102: C
 33.20341398  2.13000000  0.00000000 1 # 103: C
 33.20341398  4.97000000  0.00000000 1 # 104: C
 33.20341398  6.39000000  0.00000000 1 # 105: C
 34.43317005  0.00000000  0.00000000 1 # 106: C
 34.43317005  2.84000000  0.00000000 1 # 107: C
 34.43317005  4.26000000  0.00000000 1 # 108: C
 34.43317005  7.10000000  0.00000000 1 # 109: C
 35.66292613  0.71000000  0.00000000 1 # 110: C
 35.66292613  2.13000000  0.00000000 1 # 111: C
 35.66292613  4.97000000  0.00000000 2 # 112: H
 35.66292613  6.39000000  0.00000000 2 # 113: H
 36.89268220  0.00000000  0.00000000 1 # 114: C
 36.89268220  2.84000000  0.00000000 1 # 115: C
 36.89268220  4.26000000  0.00000000 2 # 116: H
 36.89268220  7.10000000  0.00000000 2 # 117: H
 38.12243827  0.71000000  0.00000000 1 # 118: C
 38.12243827  2.13000000  0.00000000 1 # 119: C
 38.12243827  6.39000000  0.00000000 2 # 120: H
 39.35219435  0.00000000  0.00000000 1 # 121: C
 39.35219435  2.84000000  0.00000000 2 # 122: H
 39.35219435  7.10000000  0.00000000 1 # 123: C
 40.58195042  0.71000000  0.00000000 1 # 124: C
 40.58195042  2.13000000  0.00000000 2 # 125: H
 40.58195042  4.97000000  0.00000000 2 # 126: H
 40.58195042  6.39000000  0.00000000 1 # 127: C
 41.81170649  0.00000000  0.00000000 1 # 128: C
 41.81170649  4.26000000  0.00000000 2 # 129: H
 41.81170649  7.10000000  0.00000000 1 # 130: C
 43.04146257  0.71000000  0.00000000 2 # 131: H
 43.04146257  4.97000000  0.00000000 1 # 132: C
 43.04146257  6.39000000  0.00000000 1 # 133: C
 44.27121864  0.00000000  0.00000000 2 # 134: H
 44.27121864  2.84000000  0.00000000 2 # 135: H
 44.27121864  4.26000000  0.00000000 1 # 136: C
 44.27121864  7.10000000  0.00000000 1 # 137: C
 45.50097471  2.13000000  0.00000000 2 # 138: H
 45.50097471  4.97000000  0.00000000 1 # 139: C
 45.50097471  6.39000000  0.00000000 1 # 140: C
  0.00000000 11.36000000  0.00000000 1 # 141: C
  0.00000000 12.78000000  0.00000000 1 # 142: C
  0.00000000 15.62000000  0.00000000 2 # 143: H
  1.22975607  9.23000000  0.00000000 2 # 144: H
  1.22975607 10.65000000  0.00000000 1 # 145: C
  1.22975607 13.49000000  0.00000000 1 # 146: C
  1.22975607 14.91000000  0.00000000 2 # 147: H
  2.45951215  8.52000000  0.00000000 2 # 148: H
  2.45951215 11.36000000  0.00000000 1 # 149: C
  2.45951215 12.78000000  0.00000000 1 # 150: C
  2.45951215 15.62000000  0.00000000 2 # 151: H
  3.68926822  9.23000000  0.00000000 1 # 152: C
  3.68926822 10.65000000  0.00000000 1 # 153: C
  3.68926822 13.49000000  0.00000000 1 # 154: C
  3.68926822 14.91000000  0.00000000 1 # 155: C
  4.91902429  8.52000000  0.00000000 1 # 156: C
  4.91902429 11.36000000  0.00000000 1 # 157: C
  4.91902429 12.78000000  0.00000000 1 # 158: C
  4.91902429 15.62000000  0.00000000 1 # 159: C
  6.14878037  9.23000000  0.00000000 1 # 160: C
  6.14878037 10.65000000  0.00000000 1 # 161: C
  6.14878037 13.49000000  0.00000000 1 # 162: C
  6.14878037 14.91000000  0.00000000 1 # 163: C
  7.37853644  8.52000000  0.00000000 1 # 164: C
  7.37853644 11.36000000  0.00000000 1 # 165: C
  7.37853644 12.78000000  0.00000000 1 # 166: C
  7.37853644 15.62000000  0.00000000 1 # 167: C
  8.60829251  9.23000000  0.00000000 1 # 168: C
  8.60829251 10.65000000  0.00000000 1 # 169: C
  8.60829251 13.49000000  0.00000000 1 # 170: C
  8.60829251 14.91000000  0.00000000 1 # 171: C
  9.83804859  8.52000000  0.00000000 1 # 172: C
  9.83804859 11.36000000  0.00000000 1 # 173: C
  9.83804859 12.78000000  0.00000000 1 # 174: C
  9.83804859 15.62000000  0.00000000 1 # 175: C
 11.06780466  9.23000000  0.00000000 1 # 176: C
 11.06780466 10.65000000  0.00000000 1 # 177: C
 11.06780466 13.49000000  0.00000000 1 # 178: C
 11.06780466 14.91000000  0.00000000 1 # 179: C
 12.29756073  8.52000000  0.00000000 2 # 180: H
 12.29756073 11.36000000  0.00000000 1 # 181: C
 12.29756073 12.78000000  0.00000000 1 # 182: C
 12.29756073 15.62000000  0.00000000 2 # 183: H
 13.52731681  9.23000000  0.00000000 2 # 184: H
 13.52731681 10.65000000  0.00000000 1 # 185: C
 13.52731681 13.49000000  0.00000000 1 # 186: C
 13.52731681 14.91000000  0.00000000 2 # 187: H
 14.75707288 11.36000000  0.00000000 1 # 188: C
 14.75707288 12.78000000  0.00000000 1 # 189: C
 14.75707288 15.62000000  0.00000000 2 # 190: H
 15.98682895 10.65000000  0.00000000 2 # 191: H
 15.98682895 13.49000000  0.00000000 1 # 192: C
 15.98682895 14.91000000  0.00000000 1 # 193: C
 17.21658503  8.52000000  0.00000000 2 # 194: H
 17.21658503 11.36000000  0.00000000 2 # 195: H
 17.21658503 12.78000000  0.00000000 1 # 196: C
 17.21658503 15.62000000  0.00000000 1 # 197: C
 18.44634110  9.23000000  0.00000000 2 # 198: H
 18.44634110 13.49000000  0.00000000 1 # 199: C
 18.44634110 14.91000000  0.00000000 1 # 200: C
 19.67609717  8.52000000  0.00000000 1 # 201: C
 19.67609717 12.78000000  0.00000000 2 # 202: H
 19.67609717 15.62000000  0.00000000 1 # 203: C
 20.90585325  9.23000000  0.00000000 1 # 204: C
 20.90585325 10.65000000  0.00000000 2 # 205: H
 20.90585325 13.49000000  0.00000000 2 # 206: H
 20.90585325 14.91000000  0.00000000 1 # 207: C
 22.13560932  8.52000000  0.00000000 1 # 208: C
 22.13560932 11.36000000  0.00000000 2 # 209: H
 22.13560932 15.62000000  0.00000000 1 # 210: C
 23.36536539  9.23000000  0.00000000 1 # 211: C
 23.36536539 10.65000000  0.00000000 1 # 212: C
 23.36536539 14.91000000  0.00000000 2 # 213: H
 24.59512147  8.52000000  0.00000000 1 # 214: C
 24.59512147 11.36000000  0.00000000 1 # 215: C
 24.59512147 12.78000000  0.00000000 2 # 216: H
 24.59512147 15.62000000  0.00000000 2 # 217: H
 25.82487754  9.23000000  0.00000000 1 # 218: C
 25.82487754 10.65000000  0.00000000 1 # 219: C
 25.82487754 13.49000000  0.00000000 2 # 220: H
 25.82487754 14.91000000  0.00000000 2 # 221: H
 27.05463361  8.52000000  0.00000000 1 # 222: C
 27.05463361 11.36000000  0.00000000 1 # 223: C
 27.05463361 12.78000000  0.00000000 1 # 224: C
 27.05463361 15.62000000  0.00000000 1 # 225: C
 28.28438969  9.23000000  0.00000000 1 # 226: C
 28.28438969 10.65000000  0.00000000 1 # 227: C
 28.28438969 13.49000000  0.00000000 1 # 228: C
 28.28438969 14.91000000  0.00000000 1 # 229: C
 29.51414576  8.52000000  0.00000000 1 # 230: C
 29.51414576 11.36000000  0.00000000 1 # 231: C
 29.51414576 12.78000000  0.00000000 1 # 232: C
 29.51414576 15.62000000  0.00000000 1 # 233: C
 30.74390183  9.23000000  0.00000000 1 # 234: C
 30.74390183 10.65000000  0.00000000 1 # 235: C
 30.74390183 13.49000000  0.00000000 1 # 236: C
 30.74390183 14.91000000  0.00000000 1 # 237: C
 31.97365791  8.52000000  0.00000000 1 # 238: C
 31.97365791 11.36000000  0.00000000 1 # 239: C
 31.97365791 12.78000000  0.00000000 1 # 240: C
 31.97365791 15.62000000  0.00000000 1 # 241: C
 33.20341398  9.23000000  0.00000000 1 # 242: C
 33.20341398 10.65000000  0.00000000 1 # 243: C
 33.20341398 13.49000000  0.00000000 1 # 244: C
 33.20341398 14.91000000  0.00000000 1 # 245: C
 34.43317005  8.52000000  0.00000000 1 # 246: C
 34.43317005 11.36000000  0.00000000 1 # 247: C
 34.43317005 12.78000000  0.00000000 1 # 248: C
 34.43317005 15.62000000  0.00000000 1 # 249: C
 35.66292613  9.23000000  0.00000000 1 # 250: C
 35.66292613 10.65000000  0.00000000 1 # 251: C
 35.66292613 13.49000000  0.00000000 2 # 252: H
 35.66292613 14.91000000  0.00000000 2 # 253: H
 36.89268220  8.52000000  0.00000000 1 # 254: C
 36.89268220 11.36000000  0.00000000 1 # 255: C
 36.89268220 12.78000000  0.00000000 2 # 256: H
 36.89268220 15.62000000  0.00000000 2 # 257: H
 38.12243827  9.23000000  0.00000000 1 # 258: C
 38.12243827 10.65000000  0.00000000 1 # 259: C
 38.12243827 14.91000000  0.00000000 2 # 260: H
 39.35219435  8.52000000  0.00000000 1 # 261: C
 39.35219435 11.36000000  0.00000000 2 # 262: H
 39.35219435 15.62000000  0.00000000 1 # 263: C
 40.58195042  9.23000000  0.00000000 1 # 264: C
 40.58195042 10.65000000  0.00000000 2 # 265: H
 40.58195042 13.49000000  0.00000000 2 # 266: H
 40.58195042 14.91000000  0.00000000 1 # 267: C
 41.81170649  8.52000000  0.00000000 1 # 268: C
 41.81170649 12.78000000  0.00000000 2 # 269: H
 41.81170649 15.62000000  0.00000000 1 # 270: C
 43.04146257  9.23000000  0.00000000 2 # 271: H
 43.04146257 13.49000000  0.00000000 1 # 272: C
 43.04146257 14.91000000  0.00000000 1 # 273: C
 44.27121864  8.52000000  0.00000000 2 # 274: H
 44.27121864 11.36000000  0.00000000 2 # 275: H
 44.27121864 12.78000000  0.00000000 1 # 276: C
 44.27121864 15.62000000  0.00000000 1 # 277: C
 45.50097471 10.65000000  0.00000000 2 # 278: H
 45.50097471 13.49000000  0.00000000 1 # 279: C
 45.50097471 14.91000000  0.00000000 1 # 280: C
%endblock AtomicCoordinatesAndAtomicSpecies

NumberOfSpecies 2
%block ChemicalSpeciesLabel
 1 6 C
 2 1 H
%endblock ChemicalSpeciesLabel
