LatticeConstant 1.0 Ang
%block LatticeVectors
 23.36536539 6.39000000 0.00000000
 0.00000000 8.52000000 0.00000000
 0.00000000 0.00000000 50.00000000
%endblock LatticeVectors

NumberOfAtoms 71
AtomicCoordinatesFormat Ang
%block AtomicCoordinatesAndAtomicSpecies
 22.13560932 14.20000000  0.00000000 1 #  1: C
 22.13560932 12.78000000  0.00000000 1 #  2: C
 22.13560932  8.52000000  0.00000000 2 #  3: H
 20.90585325 12.07000000  0.00000000 1 #  4: C
 20.90585325 10.65000000  0.00000000 2 #  5: H
 20.90585325  7.81000000  0.00000000 2 #  6: H
 20.90585325  6.39000000  0.00000000 1 #  7: C
 19.67609717 12.78000000  0.00000000 1 #  8: C
 19.67609717  9.94000000  0.00000000 2 #  9: H
 19.67609717  5.68000000  0.00000000 1 # 10: C
 18.44634110 12.07000000  0.00000000 1 # 11: C
 18.44634110 10.65000000  0.00000000 1 # 12: C
 18.44634110  6.39000000  0.00000000 2 # 13: H
 17.21658503 12.78000000  0.00000000 1 # 14: C
 17.21658503  9.94000000  0.00000000 1 # 15: C
 17.21658503  8.52000000  0.00000000 2 # 16: H
 17.21658503  5.68000000  0.00000000 2 # 17: H
 15.98682895 12.07000000  0.00000000 1 # 18: C
 15.98682895 10.65000000  0.00000000 1 # 19: C
 15.98682895  7.81000000  0.00000000 2 # 20: H
 14.75707288  9.94000000  0.00000000 1 # 21: C
 14.75707288  8.52000000  0.00000000 1 # 22: C
 14.75707288  4.26000000  0.00000000 2 # 23: H
 13.52731681 12.07000000  0.00000000 2 # 24: H
 13.52731681 10.65000000  0.00000000 1 # 25: C
 13.52731681  7.81000000  0.00000000 1 # 26: C
 13.52731681  6.39000000  0.00000000 2 # 27: H
 12.29756073  9.94000000  0.00000000 1 # 28: C
 12.29756073  8.52000000  0.00000000 1 # 29: C
 12.29756073  5.68000000  0.00000000 2 # 30: H
 12.29756073  4.26000000  0.00000000 2 # 31: H
 11.06780466 10.65000000  0.00000000 1 # 32: C
 11.06780466  7.81000000  0.00000000 1 # 33: C
 11.06780466  6.39000000  0.00000000 1 # 34: C
 11.06780466  3.55000000  0.00000000 1 # 35: C
  9.83804859  9.94000000  0.00000000 1 # 36: C
  9.83804859  8.52000000  0.00000000 1 # 37: C
  9.83804859  5.68000000  0.00000000 1 # 38: C
  9.83804859  4.26000000  0.00000000 1 # 39: C
  8.60829251 10.65000000  0.00000000 1 # 40: C
  8.60829251  7.81000000  0.00000000 1 # 41: C
  8.60829251  6.39000000  0.00000000 1 # 42: C
  8.60829251  3.55000000  0.00000000 1 # 43: C
  7.37853644  9.94000000  0.00000000 1 # 44: C
  7.37853644  8.52000000  0.00000000 1 # 45: C
  7.37853644  5.68000000  0.00000000 1 # 46: C
  7.37853644  4.26000000  0.00000000 1 # 47: C
  6.14878037  7.81000000  0.00000000 1 # 48: C
  6.14878037  6.39000000  0.00000000 1 # 49: C
  6.14878037  3.55000000  0.00000000 1 # 50: C
  6.14878037  2.13000000  0.00000000 1 # 51: C
  4.91902429  8.52000000  0.00000000 1 # 52: C
  4.91902429  5.68000000  0.00000000 1 # 53: C
  4.91902429  4.26000000  0.00000000 1 # 54: C
  4.91902429  1.42000000  0.00000000 1 # 55: C
  3.68926822  7.81000000  0.00000000 1 # 56: C
  3.68926822  6.39000000  0.00000000 1 # 57: C
  3.68926822  3.55000000  0.00000000 1 # 58: C
  3.68926822  2.13000000  0.00000000 1 # 59: C
  2.45951215  8.52000000  0.00000000 1 # 60: C
  2.45951215  5.68000000  0.00000000 2 # 61: H
  2.45951215  4.26000000  0.00000000 2 # 62: H
  2.45951215  1.42000000  0.00000000 1 # 63: C
  1.22975607  7.81000000  0.00000000 1 # 64: C
  1.22975607  6.39000000  0.00000000 2 # 65: H
  1.22975607  3.55000000  0.00000000 2 # 66: H
  1.22975607  2.13000000  0.00000000 1 # 67: C
  0.00000000  8.52000000  0.00000000 1 # 68: C
  0.00000000  5.68000000  0.00000000 2 # 69: H
  0.00000000  1.42000000  0.00000000 1 # 70: C
  0.00000000  0.00000000  0.00000000 1 # 71: C
%endblock AtomicCoordinatesAndAtomicSpecies

NumberOfSpecies 2
%block ChemicalSpeciesLabel
 1 6 C
 2 1 H
%endblock ChemicalSpeciesLabel
