LatticeConstant 1.0 Ang
%block LatticeVectors
 20.00000000 0.00000000 0.00000000
 0.00000000 10.00000000 0.00000000
 0.00000000 0.00000000 50.00000000
%endblock LatticeVectors

NumberOfAtoms 22
AtomicCoordinatesFormat Ang
%block AtomicCoordinatesAndAtomicSpecies
4.96 5.7469 4.9407 1 # 1: C
5.039 4.2529 5.0607 1 # 2: C
6.075 6.5669 5.2487 1 # 3: C
3.767 6.3859 4.5137 1 # 4: C
4.326 3.4069 4.1737 1 # 5: C
5.83 3.6399 6.0657 1 # 6: C
6.001 7.9649 5.1337 1 # 7: C
4.402 2.0099 4.2857 1 # 8: C
5.904 2.2419 6.1777 1 # 9: C
3.694 7.7839 4.4017 1 # 10: C
4.811 8.5739 4.7107 1 # 11: C
5.191 1.4259 5.2877 1 # 12: C
7.011 6.1179 5.5657 2 # 13: H
2.886 5.7959 4.2817 2 # 14: H
3.719 3.8359 3.3817 2 # 15: H
6.381 4.2509 6.7747 2 # 16: H
6.868 8.5749 5.3707 2 # 17: H
3.851 1.3789 3.5927 2 # 18: H
6.513 1.7919 6.9567 2 # 19: H
2.77 8.2539 4.0777 2 # 20: H
4.753 9.6549 4.6237 2 # 21: H
5.249 0.3449 5.3737 2 # 22: H
%endblock AtomicCoordinatesAndAtomicSpecies

NumberOfSpecies 5
%block ChemicalSpeciesLabel
 1 6 C
 2 1 H
%endblock ChemicalSpeciesLabel
