LatticeConstant 1.0 Ang
%block LatticeVectors
 50.00000000 0.00000000 0.00000000
 0.00000000 50.00000000 0.00000000
 0.00000000 0.00000000 50.00000000
%endblock LatticeVectors

NumberOfAtoms 26

NumberOfSpecies 4
%block ChemicalSpeciesLabel
 1 6 C
 2 1 H
 3 7 N
 4 8 O
%endblock ChemicalSpeciesLabel

ZM.UnitsLength Ang
ZM.UnitsAngle rad

%block Zmatrix
molecule
1 0 0 0 3.164151840313706 4.858804861691957 5.189079597867099 1 1 1
1 1 0 0 1.4278293852871804 1.3627233536698313 -0.21123526034118498 1 1 1
1 2 1 0 1.5086587324567444 2.1909281708576227 -2.1475047842294654 1 1 1
1 3 2 1 1.4278147031915358 2.132662462211274 ANG 1 1 0
cartesian
3 2.80369404 5.96989079 4.27726166 1 1 1
3 6.72563371 3.35240837 3.84736770 1 1 1
4 7.65618996 2.92133205 3.14220465 1 1 1
4 1.59955150 6.11653605 3.99952804 1 1 1
4 5.74368573 2.67990069 4.21819657 1 1 1
4 3.72519530 6.69243976 3.84897486 1 1 1
1 5.88215656 6.72257485 5.39854614 1 1 1
1 4.77718244 3.48836820 6.38042294 1 1 1
1 7.96237104 5.48777472 3.93880436 1 1 1
1 2.09725087 4.10777640 5.73634216 1 1 1
1 3.71821332 2.72794342 6.93526209 1 1 1
1 7.04742465 7.45529491 5.06241933 1 1 1
1 2.37294435 3.03505981 6.61405838 1 1 1
1 8.09223712 6.83971120 4.32956326 1 1 1
2 5.06333553 7.21176442 5.96327715 1 1 1
2 5.82810296 3.23964001 6.63017367 1 1 1
2 8.74325771 4.95086438 3.36627572 1 1 1
2 1.06827105 4.39852228 5.44872040 1 1 1
2 3.94943899 1.89072379 7.62431441 1 1 1
2 7.13672158 8.51451276 5.37798791 1 1 1
2 1.54126984 2.44487972 7.04695045 1 1 1
2 9.00484832 7.40966150 4.06551159 1 1 1
constants
ANG -2.174948059869432
%endblock Zmatrix
