LatticeConstant 1.0 Ang
%block LatticeVectors
 50.00000000 0.00000000 0.00000000
 0.00000000 50.00000000 0.00000000
 0.00000000 0.00000000 50.00000000
%endblock LatticeVectors

NumberOfAtoms 26

NumberOfSpecies 4
%block ChemicalSpeciesLabel
 1 6 C
 2 1 H
 3 7 N
 4 8 O
%endblock ChemicalSpeciesLabel

ZM.UnitsLength Ang
ZM.UnitsAngle rad

%block Zmatrix
molecule
1 0 0 0 4.646452453569569 3.288488256352764 7.479826676767677 1 1 1
1 1 0 0 1.4278293852871802 2.02387752146738 1.4525485261473556 1 1 1
1 2 1 0 1.5086587324567469 2.190928170857622 1.2177620491968022 1 1 1
1 3 2 1 1.4278147031915354 2.1469459573709306 ANG 1 1 0
cartesian
3 5.74159790 2.70189166 8.28754854 1 1 1
3 5.03270074 7.18736114 8.31721749 1 1 1
4 5.21356423 8.26085863 8.92046552 1 1 1
4 5.51175787 1.62717548 8.87129397 1 1 1
4 3.97904846 6.52195083 8.34959724 1 1 1
4 6.82615732 3.31564051 8.32895381 1 1 1
1 7.17389254 4.98456456 6.07253149 1 1 1
1 3.69632041 5.03843042 6.08906615 1 1 1
1 7.30154856 7.48175410 7.38806105 1 1 1
1 3.45543512 2.53255721 7.37090606 1 1 1
1 2.49781642 4.29183470 5.97205777 1 1 1
1 8.33218243 5.79217890 5.95491671 1 1 1
1 2.37294435 3.03505981 6.61405838 1 1 0
1 8.40023196 7.04459895 6.61405838 1 1 0
2 7.12970077 4.00109981 5.56308119 1 1 1
2 3.78620795 6.02404636 5.58991033 1 1 1
2 7.29339764 8.44960836 7.92568307 1 1 1
2 3.42047590 1.55711584 7.89373576 1 1 1
2 1.65771909 4.69748983 5.37299561 1 1 1
2 9.18551360 5.43756633 5.34207435 1 1 1
2 1.43871910 2.44643479 6.52386780 1 1 1
2 9.30407615 7.67894832 6.52410082 1 1 1
constants
ANG -2.0081061220397407
%endblock Zmatrix
