LatticeConstant 1.0 Ang
%block LatticeVectors
 50.00000000 0.00000000 0.00000000
 0.00000000 50.00000000 0.00000000
 0.00000000 0.00000000 50.00000000
%endblock LatticeVectors

NumberOfAtoms 26

NumberOfSpecies 4
%block ChemicalSpeciesLabel
 1 6 C
 2 1 H
 3 7 N
 4 8 O
%endblock ChemicalSpeciesLabel

ZM.UnitsLength Ang
ZM.UnitsAngle rad

%block Zmatrix
molecule
1 0 0 0 3.164151840313706 4.858804861691957 5.189079597867099 1 1 1
1 1 0 0 1.4278293852871804 1.3627233536698313 -0.21123526034118498 1 1 1
1 2 1 0 1.5086587324567444 2.1909281708576227 -2.1475047842294654 1 1 1
1 3 2 1 1.4278147031915356 2.144622459942004 ANG 1 1 0
cartesian
3 2.80369404 5.96989079 4.27726166 1 1 1
3 4.52384884 7.57179685 5.32558242 1 1 1
4 4.63185488 8.81067752 5.37584203 1 1 1
4 1.59955150 6.11653605 3.99952804 1 1 1
4 3.46838721 6.94086762 5.53035426 1 1 1
4 3.72519530 6.69243976 3.84897486 1 1 1
1 6.92921341 4.69992388 4.66060325 1 1 1
1 4.77718244 3.48836820 6.38042294 1 1 1
1 6.90230566 7.52519160 4.66343407 1 1 1
1 2.09725087 4.10777640 5.73634216 1 1 1
1 3.71821332 2.72794342 6.93526209 1 1 1
1 8.10165695 5.42282595 4.32819028 1 1 1
1 2.37294435 3.03505981 6.61405838 1 1 1
1 8.09223712 6.83971120 4.32956326 1 1 1
2 6.94464305 3.59158947 4.66782733 1 1 1
2 5.82810296 3.23964001 6.63017367 1 1 1
2 6.83097676 8.62992310 4.68149599 1 1 1
2 1.06827105 4.39852228 5.44872040 1 1 1
2 3.94943899 1.89072379 7.62431441 1 1 1
2 9.02730103 4.87166966 4.06568372 1 1 1
2 1.54126984 2.44487972 7.04695045 1 1 1
2 9.00484832 7.40966150 4.06551159 1 1 1
constants
ANG 0.7255420303123935
%endblock Zmatrix
