LatticeConstant 1.0 Ang
%block LatticeVectors
 50.00000000 0.00000000 0.00000000
 0.00000000 50.00000000 0.00000000
 0.00000000 0.00000000 50.00000000
%endblock LatticeVectors

NumberOfAtoms 26

NumberOfSpecies 4
%block ChemicalSpeciesLabel
 1 6 C
 2 1 H
 3 7 N
 4 8 O
%endblock ChemicalSpeciesLabel

ZM.UnitsLength Ang
ZM.UnitsAngle rad

%block Zmatrix
molecule
1 0 0 0 4.774555467152266 3.0959190655565187 7.073601645751069 1 1 1
1 1 0 0 1.4278293852871793 1.7517561278357296 1.52364721577376 1 1 1
1 2 1 0 1.508658732456745 2.190928170857623 1.4428667821480092 1 1 1
1 3 2 1 1.4278147031915338 2.0880428959548234 ANG 1 1 0
cartesian
3 5.98538381 2.33542365 7.46269696 1 1 1
3 4.73853585 7.35768375 7.48317171 1 1 1
4 4.75845349 8.56360467 7.79037633 1 1 1
4 5.83992885 1.13385672 7.75197158 1 1 1
4 3.71864106 6.64087627 7.48114219 1 1 1
4 7.07477431 2.94191025 7.47127238 1 1 1
1 7.36912793 4.82173854 6.42270128 1 1 1
1 3.62844221 5.14046743 6.43680520 1 1 1
1 7.14889306 7.57982850 6.99480799 1 1 1
1 3.56409562 2.36921473 6.98137640 1 1 1
1 2.40936865 4.42479266 6.34100747 1 1 1
1 8.50661993 5.66116938 6.32690220 1 1 1
1 2.37294435 3.03505981 6.61405838 1 1 0
1 8.40023196 7.04459895 6.61405838 1 1 0
2 7.45989728 3.73830762 6.20675267 1 1 1
2 3.64992310 6.22891479 6.22824826 1 1 1
2 7.00123412 8.65144340 7.23078274 1 1 1
2 3.60126567 1.28534596 7.20477244 1 1 1
2 1.48317658 4.95986857 6.04936193 1 1 1
2 9.48141997 5.22788101 6.02436959 1 1 1
2 1.42269446 2.47052362 6.53846333 1 1 1
2 9.28810159 7.70296187 6.53874841 1 1 1
constants
ANG -2.6992026135223117
%endblock Zmatrix
