LatticeConstant 1.0 Ang
%block LatticeVectors
 50.00000000 0.00000000 0.00000000
 0.00000000 50.00000000 0.00000000
 0.00000000 0.00000000 50.00000000
%endblock LatticeVectors

NumberOfAtoms 26

NumberOfSpecies 4
%block ChemicalSpeciesLabel
 1 6 C
 2 1 H
 3 7 N
 4 8 O
%endblock ChemicalSpeciesLabel

ZM.UnitsLength Ang
ZM.UnitsAngle rad

%block Zmatrix
molecule
1 0 0 0 3.164151840313706 4.858804861691957 5.189079597867099 1 1 1
1 1 0 0 1.4278293852871804 1.3627233536698313 -0.21123526034118498 1 1 1
1 2 1 0 1.5086587324567444 2.1909281708576227 -2.1475047842294654 1 1 1
1 3 2 1 1.4278147031915358 2.212290462697672 ANG 1 1 0
cartesian
3 2.80369404 5.96989079 4.27726166 1 1 1
3 4.70688040 6.12169898 2.81786990 1 1 1
4 4.83117787 6.84930034 1.81579053 1 1 1
4 1.59955150 6.11653605 3.99952804 1 1 1
4 3.71275002 5.41006808 3.06136260 1 1 1
4 3.72519530 6.69243976 3.84897486 1 1 1
1 6.85113971 5.38427403 5.87302731 1 1 1
1 4.77718244 3.48836820 6.38042294 1 1 1
1 6.98711235 6.82896970 3.44872626 1 1 1
1 2.09725087 4.10777640 5.73634216 1 1 1
1 3.71821332 2.72794342 6.93526209 1 1 1
1 8.02079981 6.11318050 5.54393730 1 1 1
1 2.37294435 3.03505981 6.61405838 1 1 1
1 8.09223712 6.83971120 4.32956326 1 1 1
2 6.79655654 4.82576542 6.82894793 1 1 1
2 5.82810296 3.23964001 6.63017367 1 1 1
2 6.98190060 7.37519452 2.48568055 1 1 1
2 1.06827105 4.39852228 5.44872040 1 1 1
2 3.94943899 1.89072379 7.62431441 1 1 1
2 8.88116858 6.11035898 6.24340675 1 1 1
2 1.54126984 2.44487972 7.04695045 1 1 1
2 9.00484832 7.40966150 4.06551159 1 1 1
constants
ANG -0.5435624106760745
%endblock Zmatrix
