LatticeConstant 1.0 Ang
%block LatticeVectors
 50.00000000 0.00000000 0.00000000
 0.00000000 50.00000000 0.00000000
 0.00000000 0.00000000 50.00000000
%endblock LatticeVectors

NumberOfAtoms 26

NumberOfSpecies 4
%block ChemicalSpeciesLabel
 1 6 C
 2 1 H
 3 7 N
 4 8 O
%endblock ChemicalSpeciesLabel

ZM.UnitsLength Ang
ZM.UnitsAngle rad

%block Zmatrix
molecule
1 0 0 0 3.5792337910017675 4.892770845073157 5.576563643225899 1 1 1
1 1 0 0 1.4278293852871813 0.9861451400740583 -0.20991621429434915 1 1 1
1 2 1 0 1.5086587324567455 2.1909281708576214 -2.0617345710633375 1 1 1
1 3 2 1 1.4278147031915378 2.174767189805532 ANG 1 1 0
cartesian
3 3.55010314 5.99622768 4.58793422 1 1 1
3 7.15434213 4.11998647 4.57548071 1 1 1
4 8.16089483 3.99897818 3.85352136 1 1 1
4 2.53393664 6.10354655 3.87766079 1 1 1
4 6.15139164 3.38122222 4.52731261 1 1 1
4 4.54013720 6.75207055 4.53131885 1 1 1
1 6.09330954 6.55074492 7.30334682 1 1 1
1 4.67250832 3.57098862 7.29612925 1 1 1
1 8.33615105 5.98529015 5.68075859 1 1 1
1 2.41082859 4.10284840 5.68912278 1 1 1
1 3.50892373 2.77190078 7.41875652 1 1 1
1 7.27385415 7.32455558 7.42680173 1 1 1
1 2.37294435 3.03505981 6.61405838 1 1 0
1 8.40023196 7.04459895 6.61405838 1 1 0
2 5.21144470 6.78030734 7.93446562 1 1 1
2 5.56066838 3.35661178 7.92373531 1 1 1
2 9.18196602 5.71673833 5.01869916 1 1 1
2 1.55579017 4.36018042 5.03433392 1 1 1
2 3.49271991 1.93904867 8.15039161 1 1 1
2 7.31069868 8.15089828 8.16524612 1 1 1
2 1.45994481 2.41452751 6.70766438 1 1 1
2 9.32553831 7.64668562 6.70746942 1 1 1
constants
ANG -1.6525524064096146
%endblock Zmatrix
