LatticeConstant 1.0 Ang
%block LatticeVectors
 50.00000000 0.00000000 0.00000000
 0.00000000 50.00000000 0.00000000
 0.00000000 0.00000000 50.00000000
%endblock LatticeVectors

NumberOfAtoms 26

NumberOfSpecies 4
%block ChemicalSpeciesLabel
 1 6 C
 2 1 H
 3 7 N
 4 8 O
%endblock ChemicalSpeciesLabel

ZM.UnitsLength Ang
ZM.UnitsAngle rad

%block Zmatrix
molecule
1 0 0 0 3.690744625248906 4.725143632290036 5.435228900067044 1 1 1
1 1 0 0 1.427829385287181 0.8627590813105652 -0.10926554504034176 1 1 1
1 2 1 0 1.508658732456745 2.190928170857622 -2.2282897792193292 1 1 1
1 3 2 1 1.4278147031915358 2.1967354733513056 ANG 1 1 0
cartesian
3 3.76875806 5.66753752 4.29432514 1 1 1
3 7.04010392 4.38413787 4.30464350 1 1 1
4 7.97778861 4.40016967 3.48640939 1 1 1
4 2.82939188 5.65940731 3.47816025 1 1 1
4 6.05485466 3.62292434 4.24267315 1 1 1
4 4.76517654 6.41378309 4.22404754 1 1 1
1 6.17974704 6.37703098 7.42935043 1 1 1
1 4.59693370 3.68459519 7.43406447 1 1 1
1 8.27487158 6.12184158 5.55099977 1 1 1
1 2.51101007 3.95225190 5.54784542 1 1 1
1 3.42092153 2.90418894 7.55844048 1 1 1
1 7.34793602 7.16907134 7.55471470 1 1 1
1 2.37294435 3.03505981 6.61405838 1 1 0
1 8.40023196 7.04459895 6.61405838 1 1 0
2 5.35515302 6.48546956 8.16214046 1 1 1
2 5.41637857 3.57351356 8.17220135 1 1 1
2 9.06163264 5.97774329 4.78543563 1 1 1
2 1.72755770 4.10197313 4.77983184 1 1 1
2 3.32549279 2.19043067 8.40143371 1 1 1
2 7.43361034 7.88698660 8.39540341 1 1 1
2 1.45050316 2.42872055 6.70810905 1 1 1
2 9.31611401 7.66085257 6.70795918 1 1 1
constants
ANG -1.2901918340018568
%endblock Zmatrix
