LatticeConstant 1.0 Ang
%block LatticeVectors
 50.00000000 0.00000000 0.00000000
 0.00000000 50.00000000 0.00000000
 0.00000000 0.00000000 50.00000000
%endblock LatticeVectors

NumberOfAtoms 26

NumberOfSpecies 4
%block ChemicalSpeciesLabel
 1 6 C
 2 1 H
 3 7 N
 4 8 O
%endblock ChemicalSpeciesLabel

ZM.UnitsLength Ang
ZM.UnitsAngle rad

%block Zmatrix
molecule
1 0 0 0 4.720814012035908 3.1767052097270385 7.2849268096082564 1 1 1
1 1 0 0 1.4278293852871815 1.8884939117808333 1.4972854665155064 1 1 1
1 2 1 0 1.5086587324567455 2.1909281708576223 1.3363765864501838 1 1 1
1 3 2 1 1.4278147031915365 2.1168261270340003 ANG 1 1 0
cartesian
3 5.88435329 2.48729648 7.89052212 1 1 1
3 4.86739261 7.29908199 7.92389920 1 1 1
4 4.96051091 8.45022765 8.38780576 1 1 1
4 5.70414191 1.33797667 8.33232285 1 1 1
4 3.83021733 6.60768224 7.93927150 1 1 1
4 6.97213698 3.09619848 7.91574453 1 1 1
1 7.28151373 4.88837169 6.23981921 1 1 1
1 3.65374094 5.10243745 6.25917162 1 1 1
1 7.21620650 7.54399054 7.20226049 1 1 1
1 3.51958881 2.43611901 7.18290804 1 1 1
1 2.44435227 4.37220398 6.15125464 1 1 1
1 8.42891528 5.71266700 6.13157625 1 1 1
1 2.37294435 3.03505981 6.61405838 1 1 0
1 8.40023196 7.04459895 6.61405838 1 1 0
2 7.31235412 3.84389992 5.86992324 1 1 1
2 3.70215275 6.15040124 5.90125646 1 1 1
2 7.13063792 8.57499523 7.59666267 1 1 1
2 3.52819501 1.39518848 7.56033152 1 1 1
2 1.55345341 4.85422585 5.70053386 1 1 1
2 9.35009193 5.30827857 5.66531077 1 1 1
2 1.43028569 2.45911220 6.52997760 1 1 1
2 9.29566675 7.69158964 6.53024079 1 1 1
constants
ANG -2.3567037646711535
%endblock Zmatrix
