LatticeConstant 1.0 Ang
%block LatticeVectors
 50.00000000 0.00000000 0.00000000
 0.00000000 50.00000000 0.00000000
 0.00000000 0.00000000 50.00000000
%endblock LatticeVectors

NumberOfAtoms 26

NumberOfSpecies 4
%block ChemicalSpeciesLabel
 1 6 C
 2 1 H
 3 7 N
 4 8 O
%endblock ChemicalSpeciesLabel

ZM.UnitsLength Ang
ZM.UnitsAngle rad

%block Zmatrix
molecule
1 0 0 0 3.164151840313706 4.858804861691957 5.189079597867099 1 1 1
1 1 0 0 1.4278293852871804 1.3627233536698313 -0.21123526034118498 1 1 1
1 2 1 0 1.5086587324567444 2.1909281708576227 -2.1475047842294654 1 1 1
1 3 2 1 1.4278147031915358 2.073326787567997 ANG 1 1 0
cartesian
3 2.80369404 5.96989079 4.27726166 1 1 1
3 5.49685043 6.81368234 7.07267990 1 1 1
4 6.02077860 7.68946469 7.78508512 1 1 1
4 1.59955150 6.11653605 3.99952804 1 1 1
4 4.41829625 6.24212672 7.32575600 1 1 1
4 3.72519530 6.69243976 3.84897486 1 1 1
1 6.45747824 5.07419606 3.82814418 1 1 1
1 4.77718244 3.48836820 6.38042294 1 1 1
1 7.37410112 7.15510766 5.50518894 1 1 1
1 2.09725087 4.10777640 5.73634216 1 1 1
1 3.71821332 2.72794342 6.93526209 1 1 1
1 7.62895202 5.79621485 3.49043471 1 1 1
1 2.37294435 3.03505981 6.61405838 1 1 1
1 8.09223712 6.83971120 4.32956326 1 1 1
2 6.10490699 4.25209311 3.17351782 1 1 1
2 5.82810296 3.23964001 6.63017367 1 1 1
2 7.68413618 7.95915740 6.20033498 1 1 1
2 1.06827105 4.39852228 5.44872040 1 1 1
2 3.94943899 1.89072379 7.62431441 1 1 1
2 8.18072501 5.53954459 2.56352218 1 1 1
2 1.54126984 2.44487972 7.04695045 1 1 1
2 9.00484832 7.40966150 4.06551159 1 1 1
constants
ANG 1.5849167418027583
%endblock Zmatrix
