LatticeConstant 1.0 Ang
%block LatticeVectors
 50.00000000 0.00000000 0.00000000
 0.00000000 50.00000000 0.00000000
 0.00000000 0.00000000 50.00000000
%endblock LatticeVectors

NumberOfAtoms 26

NumberOfSpecies 4
%block ChemicalSpeciesLabel
 1 6 C
 2 1 H
 3 7 N
 4 8 O
%endblock ChemicalSpeciesLabel

ZM.UnitsLength Ang
ZM.UnitsAngle rad

%block Zmatrix
molecule
1 0 0 0 3.8831049683892607 4.435980445696357 5.29517395980943 1 1 1
1 1 0 0 1.4278293852871804 0.7096459423486502 0.12351995139052523 1 1 1
1 2 1 0 1.5086587324567458 2.1909281708576223 -2.555343052229676 1 1 1
1 3 2 1 1.4278147031915365 2.2125202365927246 ANG 1 1 0
cartesian
3 4.14909587 5.09579965 3.99527351 1 1 1
3 6.79738620 4.80919695 4.02653796 1 1 1
4 7.60475884 5.03838531 3.10749565 1 1 1
4 3.34384802 4.88605779 3.06997123 1 1 1
4 5.83670210 4.01860210 3.94876712 1 1 1
4 5.15759276 5.82388850 3.90871821 1 1 1
1 6.34329395 6.10345363 7.57538710 1 1 1
1 4.45850583 3.89268509 7.59147693 1 1 1
1 8.14859063 6.34032162 5.41490865 1 1 1
1 2.68656146 3.68835656 5.40081429 1 1 1
1 3.26373297 3.14048059 7.71070007 1 1 1
1 7.49321160 6.92254470 7.69575670 1 1 1
1 2.37294435 3.03505981 6.61405838 1 1 0
1 8.40023196 7.04459895 6.61405838 1 1 0
2 5.63158544 6.01932368 8.42101621 1 1 1
2 5.15493309 3.96652808 8.45066920 1 1 1
2 8.81916592 6.39370383 4.53551974 1 1 1
2 2.03089838 3.64598018 4.50954043 1 1 1
2 3.02954571 2.63530928 8.66942494 1 1 1
2 7.67925289 7.46714486 8.64354318 1 1 1
2 1.43641905 2.44989231 6.70288366 1 1 1
2 9.30204700 7.68199862 6.70281145 1 1 1
constants
ANG -0.7375489536520885
%endblock Zmatrix
