LatticeConstant 1.0 Ang
%block LatticeVectors
 50.00000000 0.00000000 0.00000000
 0.00000000 50.00000000 0.00000000
 0.00000000 0.00000000 50.00000000
%endblock LatticeVectors

NumberOfAtoms 26

NumberOfSpecies 4
%block ChemicalSpeciesLabel
 1 6 C
 2 1 H
 3 7 N
 4 8 O
%endblock ChemicalSpeciesLabel

ZM.UnitsLength Ang
ZM.UnitsAngle rad

%block Zmatrix
molecule
1 0 0 0 4.601827165280609 3.3555706411813344 7.569031688827045 1 1 1
1 1 0 0 1.4278293852871802 2.090356698616799 1.4216712807610183 1 1 1
1 2 1 0 1.5086587324567446 2.1909281708576227 1.1517522271258966 1 1 1
1 3 2 1 1.4278147031915365 2.1613735256924733 ANG 1 1 0
cartesian
3 5.65508593 2.83193965 8.47031426 1 1 1
3 5.12492961 7.11253320 8.49266902 1 1 1
4 5.35331233 8.13927466 9.15799599 1 1 1
4 5.39502575 1.80265152 9.11957129 1 1 1
4 4.06345821 6.46012035 8.53314616 1 1 1
4 6.73742549 3.44902547 8.51948075 1 1 1
1 7.11475034 5.04297860 5.99603378 1 1 1
1 3.72402884 4.99677808 6.00852806 1 1 1
1 7.34896191 7.44125753 7.47125336 1 1 1
1 3.41620411 2.59153071 7.45786200 1 1 1
1 2.53134062 4.24143989 5.88824941 1 1 1
1 8.27877895 5.84179345 5.87503026 1 1 1
1 2.37294435 3.03505981 6.61405838 1 1 0
1 8.40023196 7.04459895 6.61405838 1 1 0
2 7.02901796 4.09779094 5.42335089 1 1 1
2 3.84000537 5.94317609 5.44323581 1 1 1
2 7.38357807 8.36959827 8.07360785 1 1 1
2 3.35395018 1.65711975 8.04867459 1 1 1
2 1.72228973 4.60042484 5.22059564 1 1 1
2 9.09445310 5.51948035 5.19658361 1 1 1
2 1.44319071 2.43971290 6.52180440 1 1 1
2 9.30853678 7.67224294 6.52201933 1 1 1
constants
ANG -1.83121845769893
%endblock Zmatrix
