LatticeConstant 1.0 Ang
%block LatticeVectors
 50.00000000 0.00000000 0.00000000
 0.00000000 50.00000000 0.00000000
 0.00000000 0.00000000 50.00000000
%endblock LatticeVectors

NumberOfAtoms 26

NumberOfSpecies 4
%block ChemicalSpeciesLabel
 1 6 C
 2 1 H
 3 7 N
 4 8 O
%endblock ChemicalSpeciesLabel

ZM.UnitsLength Ang
ZM.UnitsAngle rad

%block Zmatrix
molecule
1 0 0 0 3.6329715352071403 4.811990279281362 5.5016423452953065 1 1 1
1 1 0 0 1.4278293852871813 0.9230555997987773 -0.164206185149152 1 1 1
1 2 1 0 1.5086587324567446 2.190928170857622 -2.1407598374739485 1 1 1
1 3 2 1 1.4278147031915358 2.186688468382204 ANG 1 1 0
cartesian
3 3.65526748 5.83814076 4.43282440 1 1 1
3 7.10200930 4.24935715 4.43171108 1 1 1
4 8.07601720 4.19597393 3.65874569 1 1 1
4 2.67600418 5.88998536 3.66669413 1 1 1
4 6.10798121 3.49912656 4.37635157 1 1 1
4 4.64830831 6.58946374 4.36914653 1 1 1
1 6.13415001 6.46528183 7.36915155 1 1 1
1 4.63661751 3.62494102 7.36788781 1 1 1
1 8.30783630 6.05224958 5.61206249 1 1 1
1 2.45892713 4.03054491 5.61469361 1 1 1
1 3.46686822 2.83512017 7.49189413 1 1 1
1 7.30854116 7.24816734 7.49407290 1 1 1
1 2.37294435 3.03505981 6.61405838 1 1 0
1 8.40023196 7.04459895 6.61405838 1 1 0
2 5.27906439 6.63537482 8.05368964 1 1 1
2 5.49195749 3.45990052 8.05332944 1 1 1
2 9.12602432 5.84483051 4.89554910 1 1 1
2 1.63810412 4.23644305 4.90061066 1 1 1
2 3.41262282 2.05945359 8.28220666 1 1 1
2 7.36796414 8.02132962 8.28665658 1 1 1
2 1.45525020 2.42158464 6.70827207 1 1 1
2 9.32085289 7.65372891 6.70809884 1 1 1
constants
ANG -1.4721626043011409
%endblock Zmatrix
