LatticeConstant 1.0 Ang
%block LatticeVectors
 50.00000000 0.00000000 0.00000000
 0.00000000 50.00000000 0.00000000
 0.00000000 0.00000000 50.00000000
%endblock LatticeVectors

NumberOfAtoms 26

NumberOfSpecies 4
%block ChemicalSpeciesLabel
 1 6 C
 2 1 H
 3 7 N
 4 8 O
%endblock ChemicalSpeciesLabel

ZM.UnitsLength Ang
ZM.UnitsAngle rad

%block Zmatrix
molecule
1 0 0 0 4.686164738102231 3.2287912805888936 7.384836799461591 1 1 1
1 1 0 0 1.4278293852871808 1.9564744868972692 1.4774990026462207 1 1 1
1 2 1 0 1.5086587324567438 2.1909281708576227 1.2789854818644257 1 1 1
1 3 2 1 1.427814703191538 2.131942689451845 ANG 1 1 0
cartesian
3 5.81811157 2.58687348 8.09370324 1 1 1
3 4.94629983 7.24969460 8.12722959 1 1 1
4 5.08183146 8.36475734 8.66321740 1 1 1
4 5.61491870 1.47210030 8.60808972 1 1 1
4 3.90076029 6.57125916 8.15120634 1 1 1
4 6.90448625 3.19789355 8.12710523 1 1 1
1 7.22977670 4.93291110 6.15393845 1 1 1
1 3.67287469 5.07367490 6.17285040 1 1 1
1 7.25702276 7.51608007 7.29821352 1 1 1
1 3.48993568 2.48069469 7.27898185 1 1 1
1 2.46879251 4.33546451 6.05998107 1 1 1
1 8.38251354 5.74903666 6.04059619 1 1 1
1 2.37294435 3.03505981 6.61405838 1 1 0
1 8.40023196 7.04459895 6.61405838 1 1 0
2 7.22466596 3.91627480 5.71221461 1 1 1
2 3.74021956 6.09317781 5.74302072 1 1 1
2 7.20858029 8.51823532 7.76638435 1 1 1
2 3.47861928 1.46971255 7.73047490 1 1 1
2 1.60138152 4.78217853 5.53344535 1 1 1
2 9.27122919 5.36700045 5.49862504 1 1 1
2 1.43440842 2.45291476 6.52660539 1 1 1
2 9.29977717 7.68541071 6.52685451 1 1 1
constants
ANG -2.183238824025651
%endblock Zmatrix
