LatticeConstant 1.0 Ang
%block LatticeVectors
 50.00000000 0.00000000 0.00000000
 0.00000000 50.00000000 0.00000000
 0.00000000 0.00000000 50.00000000
%endblock LatticeVectors

NumberOfAtoms 26

NumberOfSpecies 4
%block ChemicalSpeciesLabel
 1 6 C
 2 1 H
 3 7 N
 4 8 O
%endblock ChemicalSpeciesLabel

ZM.UnitsLength Ang
ZM.UnitsAngle rad

%block Zmatrix
molecule
1 0 0 0 3.164151840313706 4.858804861691957 5.189079597867099 1 1 1
1 1 0 0 1.4278293852871804 1.3627233536698313 -0.21123526034118498 1 1 1
1 2 1 0 1.5086587324567444 2.1909281708576227 -2.1475047842294654 1 1 1
1 3 2 1 1.4278147031915362 2.0493469696642332 ANG 1 1 0
cartesian
3 2.80369404 5.96989079 4.27726166 1 1 1
3 6.11587969 5.98454886 7.43183778 1 1 1
4 6.88798804 6.51182458 8.25332769 1 1 1
4 1.59955150 6.11653605 3.99952804 1 1 1
4 5.04005450 5.42639807 7.72350594 1 1 1
4 3.72519530 6.69243976 3.84897486 1 1 1
1 6.16018639 5.47516176 3.66166642 1 1 1
1 4.77718244 3.48836820 6.38042294 1 1 1
1 7.67321428 6.75344853 5.67651114 1 1 1
1 2.09725087 4.10777640 5.73634216 1 1 1
1 3.71821332 2.72794342 6.93526209 1 1 1
1 7.33035327 6.19825537 3.32173299 1 1 1
1 2.37294435 3.03505981 6.61405838 1 1 1
1 8.09223712 6.83971120 4.32956326 1 1 1
2 5.57328180 4.96672232 2.87063686 1 1 1
2 5.82810296 3.23964001 6.63017367 1 1 1
2 8.22438422 7.23305978 6.50839484 1 1 1
2 1.06827105 4.39852228 5.44872040 1 1 1
2 3.94943899 1.89072379 7.62431441 1 1 1
2 7.64560782 6.25969285 2.26044137 1 1 1
2 1.54126984 2.44487972 7.04695045 1 1 1
2 9.00484832 7.40966150 4.06551159 1 1 1
constants
ANG 2.0041980179645953
%endblock Zmatrix
