LatticeConstant 1.0 Ang
%block LatticeVectors
 50.00000000 0.00000000 0.00000000
 0.00000000 50.00000000 0.00000000
 0.00000000 0.00000000 50.00000000
%endblock LatticeVectors

NumberOfAtoms 26

NumberOfSpecies 4
%block ChemicalSpeciesLabel
 1 6 C
 2 1 H
 3 7 N
 4 8 O
%endblock ChemicalSpeciesLabel

ZM.UnitsLength Ang
ZM.UnitsAngle rad

%block Zmatrix
molecule
1 0 0 0 3.164151840313706 4.858804861691957 5.189079597867099 1 1 1
1 1 0 0 1.4278293852871804 1.3627233536698313 -0.21123526034118498 1 1 1
1 2 1 0 1.5086587324567444 2.1909281708576227 -2.1475047842294654 1 1 1
1 3 2 1 1.4278147031915354 2.201314846391495 ANG 1 1 0
cartesian
3 2.80369404 5.96989079 4.27726166 1 1 1
3 5.44347234 4.81652084 2.55413532 1 1 1
4 5.84798894 5.02149422 1.39509741 1 1 1
4 1.59955150 6.11653605 3.99952804 1 1 1
4 4.46859151 4.09845557 2.85076994 1 1 1
4 3.72519530 6.69243976 3.84897486 1 1 1
1 6.49998631 6.01098176 6.00850526 1 1 1
1 4.77718244 3.48836820 6.38042294 1 1 1
1 7.34207073 6.19835224 3.31803025 1 1 1
1 2.09725087 4.10777640 5.73634216 1 1 1
1 3.71821332 2.72794342 6.93526209 1 1 1
1 7.66745755 6.74267068 5.67782136 1 1 1
1 2.37294435 3.03505981 6.61405838 1 1 1
1 8.09223712 6.83971120 4.32956326 1 1 1
2 6.16637445 5.94655611 7.06361090 1 1 1
2 5.82810296 3.23964001 6.63017367 1 1 1
2 7.62241923 6.23621994 2.24760206 1 1 1
2 1.06827105 4.39852228 5.44872040 1 1 1
2 3.94943899 1.89072379 7.62431441 1 1 1
2 8.24762094 7.23847873 6.48223712 1 1 1
2 1.54126984 2.44487972 7.04695045 1 1 1
2 9.00484832 7.40966150 4.06551159 1 1 1
constants
ANG -1.1899625829594274
%endblock Zmatrix
