LatticeConstant 1.0 Ang
%block LatticeVectors
 50.00000000 0.00000000 0.00000000
 0.00000000 50.00000000 0.00000000
 0.00000000 0.00000000 50.00000000
%endblock LatticeVectors

NumberOfAtoms 26

NumberOfSpecies 4
%block ChemicalSpeciesLabel
 1 6 C
 2 1 H
 3 7 N
 4 8 O
%endblock ChemicalSpeciesLabel

ZM.UnitsLength Ang
ZM.UnitsAngle rad

%block Zmatrix
molecule
1 0 0 0 4.750299046926166 3.1323822141110877 7.18092063329081 1 1 1
1 1 0 0 1.4278293852871797 1.8201914789523763 1.512513020838832 1 1 1
1 2 1 0 1.508658732456746 2.190928170857622 1.390762847137111 1 1 1
1 3 2 1 1.427814703191535 2.102049096976939 ANG 1 1 0
cartesian
3 5.94014567 2.40342730 7.67966250 1 1 1
3 4.79761936 7.33516104 7.70866088 1 1 1
4 4.85196778 8.51665849 8.09612273 1 1 1
4 5.77919136 1.22515956 8.04623978 1 1 1
4 3.76901105 6.63094310 7.71533100 1 1 1
4 7.02893346 3.01081990 7.69659032 1 1 1
1 7.32823687 4.85123947 6.32962536 1 1 1
1 3.63893374 5.12469618 6.34736466 1 1 1
1 7.17990789 7.56528694 7.10086754 1 1 1
1 3.54432190 2.39893931 7.08346106 1 1 1
1 2.42453952 4.40198725 6.24515698 1 1 1
1 8.47054867 5.68331677 6.22724983 1 1 1
1 2.37294435 3.03505981 6.61405838 1 1 0
1 8.40023196 7.04459895 6.61405838 1 1 0
2 7.39124344 3.78445669 6.03517651 1 1 1
2 3.67205444 6.19564614 6.06338531 1 1 1
2 7.06105415 8.61949329 7.41767745 1 1 1
2 3.56909433 1.33370710 7.38466795 1 1 1
2 1.51403643 4.91347891 5.87292653 1 1 1
2 9.42062254 5.26180654 5.84100035 1 1 1
2 1.42637425 2.46499202 6.53394384 1 1 1
2 9.29176814 7.69745018 6.53421903 1 1 1
constants
ANG -2.5286359541323753
%endblock Zmatrix
