LatticeConstant 1.0 Ang
%block LatticeVectors
 50.00000000 0.00000000 0.00000000
 0.00000000 50.00000000 0.00000000
 0.00000000 0.00000000 50.00000000
%endblock LatticeVectors

NumberOfAtoms 26

NumberOfSpecies 4
%block ChemicalSpeciesLabel
 1 6 C
 2 1 H
 3 7 N
 4 8 O
%endblock ChemicalSpeciesLabel

ZM.UnitsLength Ang
ZM.UnitsAngle rad

%block Zmatrix
molecule
1 0 0 0 3.8164182899924275 4.53622632857309 5.331287199003867 1 1 1
1 1 0 0 1.4278293852871808 0.7547449074950402 0.033547033474097314 1 1 1
1 2 1 0 1.5086587324567458 2.1909281708576223 -2.434460832967931 1 1 1
1 3 2 1 1.4278147031915371 2.2098858737478446 ANG 1 1 0
cartesian
3 4.01686426 5.29457510 4.07407510 1 1 1
3 6.88768039 4.66501223 4.10185749 1 1 1
4 7.74188114 4.82282725 3.21053704 1 1 1
4 3.16492479 5.15502181 3.17779161 1 1 1
4 5.91919818 3.88354896 4.02864659 1 1 1
4 5.02104615 6.02915042 3.99228876 1 1 1
1 6.28454016 6.19541854 7.53255839 1 1 1
1 4.50746172 3.81909279 7.54656185 1 1 1
1 8.19516244 6.26638288 5.45232853 1 1 1
1 2.62537415 3.78033559 5.44019435 1 1 1
1 3.31887171 3.05759400 7.66855094 1 1 1
1 7.44042583 7.00565725 7.65564859 1 1 1
1 2.37294435 3.03505981 6.61405838 1 1 0
1 8.40023196 7.04459895 6.61405838 1 1 0
2 5.53175154 6.17627157 8.34596980 1 1 1
2 5.24707354 3.82801914 8.37213423 1 1 1
2 8.90799638 6.25316685 4.60525188 1 1 1
2 1.92489394 3.80532999 4.58301194 1 1 1
2 3.13303958 2.47973346 8.59631099 1 1 1
2 7.58947951 7.60889108 8.57401227 1 1 1
2 1.44103751 2.44294967 6.70541370 1 1 1
2 9.30666107 7.67506258 6.70531458 1 1 1
constants
ANG -0.9225299470556863
%endblock Zmatrix
