LatticeConstant 1.0 Ang
%block LatticeVectors
 50.00000000 0.00000000 0.00000000
 0.00000000 50.00000000 0.00000000
 0.00000000 0.00000000 50.00000000
%endblock LatticeVectors

NumberOfAtoms 26

NumberOfSpecies 4
%block ChemicalSpeciesLabel
 1 6 C
 2 1 H
 3 7 N
 4 8 O
%endblock ChemicalSpeciesLabel

ZM.UnitsLength Ang
ZM.UnitsAngle rad

%block Zmatrix
molecule
1 0 0 0 3.164151840313706 4.858804861691957 5.189079597867099 1 1 1
1 1 0 0 1.4278293852871804 1.3627233536698313 -0.21123526034118498 1 1 1
1 2 1 0 1.5086587324567444 2.1909281708576227 -2.1475047842294654 1 1 1
1 3 2 1 1.4278147031915354 2.1100718716106677 ANG 1 1 0
cartesian
3 2.80369404 5.96989079 4.27726166 1 1 1
3 6.97106092 3.23554557 4.44936533 1 1 1
4 8.01005142 2.73807614 3.97815459 1 1 1
4 1.59955150 6.11653605 3.99952804 1 1 1
4 5.97955294 2.58323915 4.83069291 1 1 1
4 3.72519530 6.69243976 3.84897486 1 1 1
1 5.76256087 6.78206277 5.11070767 1 1 1
1 4.77718244 3.48836820 6.38042294 1 1 1
1 8.08159966 5.43006322 4.22921691 1 1 1
1 2.09725087 4.10777640 5.73634216 1 1 1
1 3.71821332 2.72794342 6.93526209 1 1 1
1 6.92773227 7.51420910 4.77299924 1 1 1
1 2.37294435 3.03505981 6.61405838 1 1 1
1 8.09223712 6.83971120 4.32956326 1 1 1
2 4.85096113 7.31524213 5.44745852 1 1 1
2 5.82810296 3.23964001 6.63017367 1 1 1
2 8.95900022 4.84585731 3.89051725 1 1 1
2 1.06827105 4.39852228 5.44872040 1 1 1
2 3.94943899 1.89072379 7.62431441 1 1 1
2 6.92243758 8.61967195 4.85916046 1 1 1
2 1.54126984 2.44487972 7.04695045 1 1 1
2 9.00484832 7.40966150 4.06551159 1 1 1
constants
ANG -2.4346730515318162
%endblock Zmatrix
