LatticeConstant 1.0 Ang
%block LatticeVectors
 50.00000000 0.00000000 0.00000000
 0.00000000 50.00000000 0.00000000
 0.00000000 0.00000000 50.00000000
%endblock LatticeVectors

NumberOfAtoms 26

NumberOfSpecies 4
%block ChemicalSpeciesLabel
 1 6 C
 2 1 H
 3 7 N
 4 8 O
%endblock ChemicalSpeciesLabel

ZM.UnitsLength Ang
ZM.UnitsAngle rad

%block Zmatrix
molecule
1 0 0 0 3.752081888383963 4.63293918840356 5.378185823069382 1 1 1
1 1 0 0 1.4278293852871817 0.8062516913077141 -0.04376159336179738 1 1 1
1 2 1 0 1.5086587324567449 2.1909281708576223 -2.3257507796939065 1 1 1
1 3 2 1 1.4278147031915356 2.20456032299377 ANG 1 1 0
cartesian
3 3.88965905 5.48579468 4.17420752 1 1 1
3 6.96863683 4.52304460 4.19461680 1 1 1
4 7.86633642 4.60965611 3.33691607 1 1 1
4 2.99286356 5.41367063 3.31446569 1 1 1
4 5.99193403 3.75139777 4.12668088 1 1 1
4 4.88980180 6.22644179 4.09786934 1 1 1
1 6.22994330 6.28682766 7.48384642 1 1 1
1 4.55375562 3.74950207 7.49387044 1 1 1
1 8.23729146 6.19340531 5.49772071 1 1 1
1 2.56666111 3.86859520 5.48942238 1 1 1
1 3.37144172 2.97856882 7.61757852 1 1 1
1 7.39194204 7.08801687 7.60860388 1 1 1
1 2.37294435 3.03505981 6.61405838 1 1 0
1 8.40023196 7.04459895 6.61405838 1 1 0
2 5.43948171 6.33201506 8.25961958 1 1 1
2 5.33450921 3.69658261 8.27891722 1 1 1
2 8.98889992 6.11421556 4.68861043 1 1 1
2 1.82344311 3.95783462 4.67350434 1 1 1
2 3.23201732 2.33094646 8.50658989 1 1 1
2 7.50751143 7.74914197 8.49124606 1 1 1
2 1.44574925 2.43586681 6.70715813 1 1 1
2 9.31136708 7.66798834 6.70703303 1 1 1
constants
ANG -1.106874296839171
%endblock Zmatrix
