LatticeConstant 1.0 Ang
%block LatticeVectors
 50.00000000 0.00000000 0.00000000
 0.00000000 50.00000000 0.00000000
 0.00000000 0.00000000 50.00000000
%endblock LatticeVectors

NumberOfAtoms 26

NumberOfSpecies 4
%block ChemicalSpeciesLabel
 1 6 C
 2 1 H
 3 7 N
 4 8 O
%endblock ChemicalSpeciesLabel

ZM.UnitsLength Ang
ZM.UnitsAngle rad

%block Zmatrix
molecule
1 0 0 0 3.9514286955459403 4.333273690540657 5.2703144587874515 1 1 1
1 1 0 0 1.4278293852871802 0.672484920550834 0.2262079146004221 1 1 1
1 2 1 0 1.508658732456745 2.1909281708576227 -2.688502938601846 1 1 1
1 3 2 1 1.427814703191536 2.2123674790643215 ANG 1 1 0
cartesian
3 4.28494213 4.89159052 3.93880974 1 1 1
3 6.69801297 4.95495308 3.96883075 1 1 1
4 7.45545697 5.25531100 3.02804365 1 1 1
4 3.52772340 4.60964951 2.99238007 1 1 1
4 5.74460707 4.15597924 3.88721911 1 1 1
4 5.29798457 5.61284633 3.84822144 1 1 1
1 6.40590886 6.01148828 7.61218620 1 1 1
1 4.40740518 3.96950148 7.62807156 1 1 1
1 8.09773406 6.41486455 5.38555539 1 1 1
1 2.74957080 3.59363858 5.37177990 1 1 1
1 3.20661098 3.22634849 7.74350493 1 1 1
1 7.55007146 6.83913612 7.72880794 1 1 1
1 2.37294435 3.03505981 6.61405838 1 1 0
1 8.40023196 7.04459895 6.61405838 1 1 0
2 5.73851345 5.86208670 8.48451524 1 1 1
2 5.05906340 4.11064294 8.51356336 1 1 1
2 8.72274642 6.53510577 4.47960432 1 1 1
2 2.14032827 3.48148112 4.45400914 1 1 1
2 2.92263668 2.79601889 8.72501913 1 1 1
2 7.77647672 7.32464324 8.69964439 1 1 1
2 1.43194500 2.45661787 6.69959032 1 1 1
2 9.29757595 7.68871967 6.69954567 1 1 1
constants
ANG -0.5523671135509889
%endblock Zmatrix
