LatticeConstant 1.0 Ang
%block LatticeVectors
 50.00000000 0.00000000 0.00000000
 0.00000000 50.00000000 0.00000000
 0.00000000 0.00000000 50.00000000
%endblock LatticeVectors

NumberOfAtoms 48
AtomicCoordinatesFormat Ang
%block AtomicCoordinatesAndAtomicSpecies
   0.59865390  -1.19548421   0.00000000 1 #  1: N
   1.93136155  -1.22340046   0.00000000 2 #  2: C
   2.72461776  -0.09051318   0.00000000 2 #  3: C
   0.69840482   1.18093806   0.00000000 2 #  4: C
   2.06615272   1.20720016   0.00000000 2 #  5: C
   0.00000000   0.00000000   0.00000000 2 #  6: C
   2.46273585  -2.18996673   0.00000000 3 #  7: H
   2.59921319   2.17283754   0.00000000 3 #  8: H
  -0.03885854   2.46307835   0.00000000 1 #  9: N
  -1.13180330   2.49042389   0.53915210 4 # 10: O
   0.48728041   3.42143831  -0.53915210 4 # 11: O
   4.17461776  -0.09051318   0.00000000 2 # 12: C
   5.35461776  -0.09051318   0.00000000 2 # 13: C
   6.80461776  -0.09051318   0.00000000 2 # 14: C
   7.50961776  -1.31160900   0.00000000 2 # 15: C
   8.91961776  -1.31160900   0.00000000 2 # 16: C
   9.62461776  -0.09051318   0.00000000 2 # 17: C
   8.91961776   1.13058264   0.00000000 2 # 18: C
   7.50961776   1.13058264   0.00000000 2 # 19: C
   6.95811776  -2.26683502   0.00000000 3 # 20: H
   9.47111776  -2.26683502   0.00000000 3 # 21: H
   9.47111776   2.08580866   0.00000000 3 # 22: H
   6.95811776   2.08580866   0.00000000 3 # 23: H
  10.72761776  -0.09051318   0.00000000 3 # 24: H
  -1.28337607   0.56346562  -1.95843524 1 # 25: N
  -2.42522428   0.57662334  -2.64611144 2 # 26: C
  -3.61178370   0.04266143  -2.17744266 2 # 27: C
  -2.41771499  -0.55660960  -0.19320444 2 # 28: C
  -3.61380045  -0.56898768  -0.85701945 2 # 29: C
  -1.29210990   0.00000000  -0.74600000 2 # 30: C
  -2.45917259   1.03219344  -3.65005984 3 # 31: H
  -4.50127006  -1.02411996  -0.38599792 3 # 32: H
  -2.34462301  -1.16091869   1.15472326 1 # 33: N
  -1.53722273  -0.69829801   1.94215446 4 # 34: O
  -3.09583039  -2.08813033   1.40357471 4 # 35: O
  -4.86752053   0.04266143  -2.90244266 2 # 36: C
  -5.88943051   0.04266143  -3.49244266 2 # 37: C
  -7.14516734   0.04266143  -4.21744266 2 # 38: C
  -7.21723776   0.61819853  -5.50261304 2 # 39: C
  -8.43833358   0.61819853  -6.20761304 2 # 40: C
  -9.58735898   0.04266143  -5.62744266 2 # 41: C
  -9.51528857  -0.53287566  -4.34227228 2 # 42: C
  -8.29419275  -0.53287566  -3.63727228 2 # 43: C
  -6.31839023   1.06842364  -5.95646263 3 # 44: H
  -8.49471206   1.06842364  -7.21296263 3 # 45: H
 -10.41413610  -0.98310078  -3.88842268 3 # 46: H
  -8.23781426  -0.98310078  -2.63192268 3 # 47: H
 -10.54258500   0.04266143  -6.17894266 3 # 48: H
%endblock AtomicCoordinatesAndAtomicSpecies

NumberOfSpecies 4
%block ChemicalSpeciesLabel
 1 7 N
 2 6 C
 3 1 H
 4 8 O
%endblock ChemicalSpeciesLabel
