LatticeConstant 1.0 Ang
%block LatticeVectors
 50.00000000 0.00000000 0.00000000
 0.00000000 50.00000000 0.00000000
 0.00000000 0.00000000 50.00000000
%endblock LatticeVectors

NumberOfAtoms 28

NumberOfSpecies 5
%block ChemicalSpeciesLabel
 1 6 C
 2 1 H
 3 16 S
 4 7 N
 5 8 O
%endblock ChemicalSpeciesLabel

ZM.UnitsLength Ang
ZM.UnitsAngle rad

%block Zmatrix
molecule
1 0 0 0 7.666572093774242 3.031372184189261 1.845285461625518 1 1 1
1 1 0 0 1.4256975984771911 0.6285530216305759 0.004874617668302554 1 1 1
1 2 1 0 1.506821368463224 2.181222368933666 3.1158334430537904 1 1 1
1 3 2 1 1.4258938548001703 2.181953704424591 ANG 1 1 0
cartesian
1 10.72311207  1.99197520  2.27812428 1 1 1
1 12.13171426  1.89830384  2.32603098 1 1 1
1 12.89436369  2.82263514  3.10017183 1 1 1
1 12.20642723  3.83190227  3.82266298 1 1 1
2 10.14829144  1.26127333  1.67480098 1 1 1
2 12.64829198  1.09788126  1.75746788 1 1 1
2 12.72481908  4.57837586  4.45536448 1 1 1
3 14.66133881  2.63061504  3.11184629 1 1 1
2 14.92891098  3.70297751  3.92973087 1 1 1
4 10.15685551  5.00550916  4.51859714 1 1 1
5  8.93926027  5.20105745  4.34224094 1 1 1
5 10.87742496  5.65998674  5.29576113 1 1 1
1  7.84522381  2.94905444  4.25684901 1 1 1
1  6.43726588  2.89717494  4.36087330 1 1 1
1  5.62152152  2.91054758  3.19066955 1 1 1
1  6.25611324  2.96892878  1.92265050 1 1 1
2  8.46091166  2.93407251  5.17848542 1 1 1
2  5.96258665  2.84358754  5.36203267 1 1 1
2  5.69492413  2.97079714  0.96783055 1 1 1
3  3.85902185  2.84145030  3.41117925 1 1 1
2  3.53137910  2.89701146  2.07698527 1 1 1
4  8.25087185  3.10458264  0.48433914 1 1 1
5  9.47998836  3.28444334  0.39166143 1 1 1
5  7.47537640  2.97998018 -0.48210952 1 1 1
constants
ANG 2.2980631333505412
%endblock Zmatrix
