LatticeConstant 1.0 Ang
%block LatticeVectors
 50.00000000 0.00000000 0.00000000
 0.00000000 50.00000000 0.00000000
 0.00000000 0.00000000 50.00000000
%endblock LatticeVectors

NumberOfAtoms 28

NumberOfSpecies 5
%block ChemicalSpeciesLabel
 1 6 C
 2 1 H
 3 16 S
 4 7 N
 5 8 O
%endblock ChemicalSpeciesLabel

ZM.UnitsLength Ang
ZM.UnitsAngle rad

%block Zmatrix
molecule
1 0 0 0 7.666572093774242 3.031372184189261 1.845285461625518 1 1 1
1 1 0 0 1.4256975984771911 0.6285530216305759 0.004874617668302554 1 1 1
1 2 1 0 1.506821368463224 2.181222368933666 0.0 1 1 1
1 3 2 1 1.4258938548001703 2.181953704424591 ANG 1 1 0
cartesian
1 10.73563013  3.44152524  4.11847245 1 1 1
1 12.14266433  3.34351200  4.19513846 1 1 1
1 12.89436369  2.82263514  3.10017183 1 1 1
1 12.19796478  2.41144320  1.93405866 1 1 1
2 10.17013779  3.85352787  4.97801607 1 1 1
2 12.66680083  3.67595889  5.11467794 1 1 1
2 12.70951354  2.00848373  1.03839932 1 1 1
3 14.66115460  2.73975668  3.27564295 1 1 1
2 14.91393386  2.18442075  2.04349199 1 1 1
4 10.13642767  2.04141360  0.63962267 1 1 1
5  8.89328666  1.96128258  0.63198914 1 1 1
5 10.87357184  1.75962626 -0.32409901 1 1 1
1  7.84522381  2.94905444  4.25684901 1 1 1
1  6.43726588  2.89717494  4.36087330 1 1 1
1  5.62152152  2.91054758  3.19066955 1 1 1
1  6.25611324  2.96892878  1.92265050 1 1 1
2  8.46091166  2.93407251  5.17848542 1 1 1
2  5.96258665  2.84358754  5.36203267 1 1 1
2  5.69492413  2.97079714  0.96783055 1 1 1
3  3.85902185  2.84145030  3.41117925 1 1 1
2  3.53137910  2.89701146  2.07698527 1 1 1
4  8.25087185  3.10458264  0.48433914 1 1 1
5  9.47998836  3.28444334  0.39166143 1 1 1
5  7.47537640  2.97998018 -0.48210952 1 1 1
constants
ANG -0.4155253632964022
%endblock Zmatrix
