SystemName          Graphene
SystemLabel         gr
NumberOfAtoms       2
NumberOfSpecies     1

%block ChemicalSpeciesLabel
 1  6  C
%endblock ChemicalSpeciesLabel

LatticeConstant 2.4674 Ang

%block LatticeParameters
1.0 1.0 10.0 90 90 120
%endblock LatticeParameters

AtomicCoordinatesFormat  Ang

%block AtomicCoordinatesAndAtomicSpecies
 0.0000  0.0000  0.0000  1
 0.0000  1.4245  0.0000  1
%endblock AtomicCoordinatesAndAtomicSpecies

%block kgrid.MonkhorstPack
4 0 0 0.5
0 4 0 0.5
0 0 1 0.5
%endblock kgrid.MonkhorstPack [4 4 1]

