LatticeConstant 1.0 Ang
%block LatticeVectors
 47.46660458 0.00000000 0.00000000
 0.00000000 8.68988381 0.00000000
 0.00000000 0.00000000 19.99999059
%endblock LatticeVectors

NumberOfAtoms 140
AtomicCoordinatesFormat Ang
%block AtomicCoordinatesAndAtomicSpecies
 12.05347563  4.45578408  9.18012631 1 #   1: H
  6.01819587  2.48148408 11.45995404 1 #   2: H
  4.39073447  3.38305347 11.32392202 1 #   3: H
  4.39926621  5.24526869 11.27462893 1 #   4: H
  6.08487385  6.17541224 11.10230076 1 #   5: H
 42.51713561  5.24584147 11.29300015 1 #   6: H
 42.52607932  3.38340536 11.24870905 1 #   7: H
 40.89994837  2.48349416 11.11869880 1 #   8: H
 40.83158422  6.17663468 11.46531577 1 #   9: H
  8.20252394  7.42689525 11.07118365 1 #  10: H
 14.83321880  4.82436097 13.36250580 1 #  11: H
 29.75032663  4.48849923 11.09706103 1 #  12: H
 17.16159521  4.48907668 11.48630182 1 #  13: H
 11.80079043  1.40498911 12.43382302 1 #  14: H
 12.71250392  3.51184171 13.39857191 1 #  15: H
 14.98270259  8.23084229 11.03610056 1 #  16: H
  7.72245996  3.18057289 10.07321694 1 #  17: H
 14.13904061  5.82999137  9.15583467 1 #  18: H
  9.80942942  4.54656960 10.13441867 1 #  19: H
  9.69408387  0.06114856 12.43289509 1 #  20: H
 31.92715225  8.22946182 11.56600239 1 #  21: H
 35.54655210  5.59418066 10.19232338 1 #  22: H
 31.42802212  3.74617558 12.43447925 1 #  23: H
 33.52553675  2.39203314 12.37914864 1 #  24: H
 38.58506368  2.16797091  9.22109258 1 #  25: H
 35.75316118  2.45500526 13.38174553 1 #  26: H
 33.43611652  6.92241083 10.18313546 1 #  27: H
 36.46989870  3.49812014  9.19578245 1 #  28: H
 29.80824637  0.78890558 11.52868140 1 #  29: H
 28.12902124  1.71932091 11.30229793 1 #  30: H
 28.12144506  3.58225375 11.24142408 1 #  31: H
 18.78874692  3.58271364 11.33661414 1 #  32: H
 18.78162420  1.71957427 11.27928573 1 #  33: H
 17.10123241  0.79058560 11.06988020 1 #  34: H
 37.82823099  1.06988036 13.39310586 1 #  35: H
 38.71458429  7.42881027 11.49995437 1 #  36: H
 45.94081942  5.76255901 11.28222915 2 #  37: C
 45.93642797  7.20984307 11.28313264 2 #  38: C
 47.19164394  7.93755804 11.28397123 2 #  39: C
 47.19151516  5.03360738 11.28389370 2 #  40: C
 47.19159383  3.59149788 11.28365403 2 #  41: C
  0.97574653  5.76225493 11.28590513 2 #  42: C
  0.98028921  7.20961211 11.28502201 2 #  43: C
  3.44183667  5.79366324 11.27460398 2 #  44: C
  3.48391148  7.20494781 11.26542668 2 #  45: C
  2.22958471  7.93339085 11.28484238 2 #  46: C
  2.22918966  5.04719517 11.28996122 2 #  47: C
  2.22624059  3.57864981 11.30459836 2 #  48: C
  4.76671505  7.94114040 11.24778807 2 #  49: C
  6.03672838  7.27937504 11.17522748 2 #  50: C
  7.25022800  7.98668565 11.16903029 2 #  51: C
 40.88004936  7.28063847 11.39372373 2 #  52: C
 39.66686353  7.98854160 11.40175993 2 #  53: C
 42.15026318  7.94190219 11.32138536 2 #  54: C
 43.47461150  5.79404250 11.29356098 2 #  55: C
 43.43289344  7.20533385 11.30325139 2 #  56: C
 44.68730747  7.93372395 11.28390822 2 #  57: C
 44.68746381  5.04765083 11.27847040 2 #  58: C
 44.69054200  3.57913513 11.26430512 2 #  59: C
 45.93819591  1.41496788 11.27337233 2 #  60: C
 45.94229356  2.86250371 11.27191110 2 #  61: C
 47.19170468  0.68648374 11.28393830 2 #  62: C
  0.97434361  2.86223801 11.29590071 2 #  63: C
  0.97874767  1.41468663 11.29470986 2 #  64: C
  3.47681645  1.42130505 11.31963104 2 #  65: C
  3.43597137  2.83150457 11.32040457 2 #  66: C
  2.22706902  0.69010728 11.29974617 2 #  67: C
  4.76293120  0.68998606 11.30609829 2 #  68: C
  6.01081010  1.38247098 11.33944625 2 #  69: C
  7.26222375  0.72647042 11.25921837 2 #  70: C
 40.90694094  1.38400800 11.23486624 2 #  71: C
 39.65544872  0.72861342 11.31499059 2 #  72: C
 42.15434720  0.69075008 11.26509870 2 #  73: C
 43.48086927  2.83197498 11.25017121 2 #  74: C
 43.44048066  1.42180396 11.25039275 2 #  75: C
 44.69003496  0.69042155 11.26895390 2 #  76: C
 22.20045387  8.44460235 11.28915195 2 #  77: C
 22.20167662  5.54952103 11.29941509 2 #  78: C
 23.45505096  6.27781705 11.28669429 2 #  79: C
 23.45510571  7.71650762 11.28774186 2 #  80: C
 24.70994857  8.44446845 11.28725828 2 #  81: C
 24.70854725  5.54945812 11.27314024 2 #  82: C
 27.21285370  8.44959470 11.31423607 2 #  83: C
 27.20711739  5.54356225 11.24608894 2 #  84: C
 25.95899814  7.72067236 11.28844037 2 #  85: C
 25.95689432  6.27412902 11.26877250 2 #  86: C
 28.49295142  6.27590616 11.26660512 2 #  87: C
 28.49527956  7.71385289 11.33913488 2 #  88: C
 29.76337694  8.37621818 11.43576742 2 #  89: C
 29.74213979  5.58581641 11.23195866 2 #  90: C
 35.95771169  3.08755144 11.29016343 2 #  91: C
 36.76358695  2.95883250 10.12000710 2 #  92: C
 17.14705119  8.37749506 11.15710572 2 #  93: C
 17.16944133  5.58646731 11.35247036 2 #  94: C
 15.93325167  7.67134474 11.14958076 2 #  95: C
 15.91922359  6.24281063 11.25747996 2 #  96: C
 18.41805234  6.27660637 11.31418136 2 #  97: C
 18.41536442  7.71464240 11.24489338 2 #  98: C
 19.69795023  8.44990335 11.26593273 2 #  99: C
 19.70362944  5.54390579 11.32933729 2 # 100: C
 20.95170141  7.72080376 11.28844107 2 # 101: C
 20.95371666  6.27431330 11.30571074 2 # 102: C
  8.53141920  1.51758234 11.26458710 2 # 103: C
  8.59931060  2.79830074 10.63397014 2 # 104: C
  9.78065220  3.57001843 10.66067050 2 # 105: C
  9.71433055  1.03466200 11.90156761 2 # 106: C
 10.90528080  1.79540324 11.90755473 2 # 107: C
 10.96053895  3.08293124 11.29580519 2 # 108: C
 12.21795232  3.89178335 11.29467218 2 # 109: C
 12.66704720  4.53151505 10.10157277 2 # 110: C
 13.84987698  5.30444663 10.08880574 2 # 111: C
 13.01222525  4.03945310 12.46944371 2 # 112: C
 14.20740908  4.78914070 12.44795680 2 # 113: C
 14.64915811  5.45344602 11.26227836 2 # 114: C
 36.38567970  2.41231518 12.47092563 2 # 115: C
 32.26356774  5.45366274 11.32735227 2 # 116: C
 34.64806833  5.19400397 10.70628123 2 # 117: C
 34.69935881  3.89601474 11.29435414 2 # 118: C
 33.50697763  3.38799369 11.89016489 2 # 119: C
 32.31971264  4.15415312 11.91614420 2 # 120: C
 38.38682744  1.52098363 11.31358603 2 # 121: C
 37.56412836  1.63546332 12.47662372 2 # 122: C
 33.45428209  5.94673823 10.70955317 2 # 123: C
 30.97725225  7.67020298 11.44591416 2 # 124: C
 30.99231641  6.24189629 11.33230388 2 # 125: C
 37.95696386  2.20177979 10.13475587 2 # 126: C
 22.20574983  4.10209182 11.30102705 2 # 127: C
 23.45488345  3.37278337 11.28630713 2 # 128: C
 23.45498496  1.93079178 11.28736335 2 # 129: C
 24.70418976  4.10194665 11.27114507 2 # 130: C
 27.16629138  4.13335587 11.24426432 2 # 131: C
 25.95632283  3.38585956 11.26160994 2 # 132: C
 25.95893447  1.91708663 11.28088384 2 # 133: C
 19.74393127  4.13368756 11.33092342 2 # 134: C
 20.95380503  3.38608352 11.31203751 2 # 135: C
 20.95148589  1.91735063 11.29549622 2 # 136: C
 22.20460600  1.20202244 11.29032525 2 # 137: C
 24.70553551  1.20193020 11.28570812 2 # 138: C
 27.17152815  1.17093457 11.30160780 2 # 139: C
 19.73900562  1.17116706 11.27812558 2 # 140: C
%endblock AtomicCoordinatesAndAtomicSpecies

NumberOfSpecies 2
%block ChemicalSpeciesLabel
 1 1 H
 2 6 C
%endblock ChemicalSpeciesLabel
