LatticeConstant 1.0 Ang
%block LatticeVectors
 46.73073079 0.00000000 0.00000000
 0.00000000 8.52000000 0.00000000
 0.00000000 0.00000000 50.00000000
%endblock LatticeVectors

NumberOfAtoms 140
AtomicCoordinatesFormat Ang
%block AtomicCoordinatesAndAtomicSpecies
  0.00000000  2.84000000  0.00000000 1 #   1: C
  0.00000000  4.26000000  0.00000000 1 #   2: C
  0.00000000  7.10000000  0.00000000 2 #   3: H
  1.22975607  0.71000000  0.00000000 2 #   4: H
  1.22975607  2.13000000  0.00000000 1 #   5: C
  1.22975607  4.97000000  0.00000000 1 #   6: C
  1.22975607  6.39000000  0.00000000 2 #   7: H
  2.45951215  0.00000000  0.00000000 2 #   8: H
  2.45951215  2.84000000  0.00000000 1 #   9: C
  2.45951215  4.26000000  0.00000000 1 #  10: C
  2.45951215  7.10000000  0.00000000 2 #  11: H
  3.68926822  0.71000000  0.00000000 1 #  12: C
  3.68926822  2.13000000  0.00000000 1 #  13: C
  3.68926822  4.97000000  0.00000000 1 #  14: C
  3.68926822  6.39000000  0.00000000 1 #  15: C
  4.91902429  0.00000000  0.00000000 1 #  16: C
  4.91902429  2.84000000  0.00000000 1 #  17: C
  4.91902429  4.26000000  0.00000000 1 #  18: C
  4.91902429  7.10000000  0.00000000 1 #  19: C
  6.14878037  0.71000000  0.00000000 1 #  20: C
  6.14878037  2.13000000  0.00000000 1 #  21: C
  6.14878037  4.97000000  0.00000000 1 #  22: C
  6.14878037  6.39000000  0.00000000 1 #  23: C
  7.37853644  0.00000000  0.00000000 1 #  24: C
  7.37853644  2.84000000  0.00000000 1 #  25: C
  7.37853644  4.26000000  0.00000000 1 #  26: C
  7.37853644  7.10000000  0.00000000 1 #  27: C
  8.60829251  0.71000000  0.00000000 1 #  28: C
  8.60829251  2.13000000  0.00000000 1 #  29: C
  8.60829251  4.97000000  0.00000000 1 #  30: C
  8.60829251  6.39000000  0.00000000 1 #  31: C
  9.83804859  0.00000000  0.00000000 1 #  32: C
  9.83804859  2.84000000  0.00000000 1 #  33: C
  9.83804859  4.26000000  0.00000000 1 #  34: C
  9.83804859  7.10000000  0.00000000 1 #  35: C
 11.06780466  0.71000000  0.00000000 1 #  36: C
 11.06780466  2.13000000  0.00000000 1 #  37: C
 11.06780466  4.97000000  0.00000000 1 #  38: C
 11.06780466  6.39000000  0.00000000 1 #  39: C
 12.29756073  0.00000000  0.00000000 2 #  40: H
 12.29756073  2.84000000  0.00000000 1 #  41: C
 12.29756073  4.26000000  0.00000000 1 #  42: C
 12.29756073  7.10000000  0.00000000 2 #  43: H
 13.52731681  0.71000000  0.00000000 2 #  44: H
 13.52731681  2.13000000  0.00000000 1 #  45: C
 13.52731681  4.97000000  0.00000000 1 #  46: C
 13.52731681  6.39000000  0.00000000 2 #  47: H
 14.75707288  2.84000000  0.00000000 1 #  48: C
 14.75707288  4.26000000  0.00000000 1 #  49: C
 14.75707288  7.10000000  0.00000000 2 #  50: H
 15.98682895  2.13000000  0.00000000 2 #  51: H
 15.98682895  4.97000000  0.00000000 1 #  52: C
 15.98682895  6.39000000  0.00000000 1 #  53: C
 17.21658503  0.00000000  0.00000000 2 #  54: H
 17.21658503  2.84000000  0.00000000 2 #  55: H
 17.21658503  4.26000000  0.00000000 1 #  56: C
 17.21658503  7.10000000  0.00000000 1 #  57: C
 18.44634110  0.71000000  0.00000000 2 #  58: H
 18.44634110  4.97000000  0.00000000 1 #  59: C
 18.44634110  6.39000000  0.00000000 1 #  60: C
 19.67609717  0.00000000  0.00000000 1 #  61: C
 19.67609717  4.26000000  0.00000000 2 #  62: H
 19.67609717  7.10000000  0.00000000 1 #  63: C
 20.90585325  0.71000000  0.00000000 1 #  64: C
 20.90585325  2.13000000  0.00000000 2 #  65: H
 20.90585325  4.97000000  0.00000000 2 #  66: H
 20.90585325  6.39000000  0.00000000 1 #  67: C
 22.13560932  0.00000000  0.00000000 1 #  68: C
 22.13560932  2.84000000  0.00000000 2 #  69: H
 22.13560932  7.10000000  0.00000000 1 #  70: C
 23.36536539  0.71000000  0.00000000 1 #  71: C
 23.36536539  2.13000000  0.00000000 1 #  72: C
 23.36536539  6.39000000  0.00000000 2 #  73: H
 24.59512147  0.00000000  0.00000000 1 #  74: C
 24.59512147  2.84000000  0.00000000 1 #  75: C
 24.59512147  4.26000000  0.00000000 2 #  76: H
 24.59512147  7.10000000  0.00000000 2 #  77: H
 25.82487754  0.71000000  0.00000000 1 #  78: C
 25.82487754  2.13000000  0.00000000 1 #  79: C
 25.82487754  4.97000000  0.00000000 2 #  80: H
 25.82487754  6.39000000  0.00000000 2 #  81: H
 27.05463361  0.00000000  0.00000000 1 #  82: C
 27.05463361  2.84000000  0.00000000 1 #  83: C
 27.05463361  4.26000000  0.00000000 1 #  84: C
 27.05463361  7.10000000  0.00000000 1 #  85: C
 28.28438969  0.71000000  0.00000000 1 #  86: C
 28.28438969  2.13000000  0.00000000 1 #  87: C
 28.28438969  4.97000000  0.00000000 1 #  88: C
 28.28438969  6.39000000  0.00000000 1 #  89: C
 29.51414576  0.00000000  0.00000000 1 #  90: C
 29.51414576  2.84000000  0.00000000 1 #  91: C
 29.51414576  4.26000000  0.00000000 1 #  92: C
 29.51414576  7.10000000  0.00000000 1 #  93: C
 30.74390183  0.71000000  0.00000000 1 #  94: C
 30.74390183  2.13000000  0.00000000 1 #  95: C
 30.74390183  4.97000000  0.00000000 1 #  96: C
 30.74390183  6.39000000  0.00000000 1 #  97: C
 31.97365791  0.00000000  0.00000000 1 #  98: C
 31.97365791  2.84000000  0.00000000 1 #  99: C
 31.97365791  4.26000000  0.00000000 1 # 100: C
 31.97365791  7.10000000  0.00000000 1 # 101: C
 33.20341398  0.71000000  0.00000000 1 # 102: C
 33.20341398  2.13000000  0.00000000 1 # 103: C
 33.20341398  4.97000000  0.00000000 1 # 104: C
 33.20341398  6.39000000  0.00000000 1 # 105: C
 34.43317005  0.00000000  0.00000000 1 # 106: C
 34.43317005  2.84000000  0.00000000 1 # 107: C
 34.43317005  4.26000000  0.00000000 1 # 108: C
 34.43317005  7.10000000  0.00000000 1 # 109: C
 35.66292613  0.71000000  0.00000000 1 # 110: C
 35.66292613  2.13000000  0.00000000 1 # 111: C
 35.66292613  4.97000000  0.00000000 2 # 112: H
 35.66292613  6.39000000  0.00000000 2 # 113: H
 36.89268220  0.00000000  0.00000000 1 # 114: C
 36.89268220  2.84000000  0.00000000 1 # 115: C
 36.89268220  4.26000000  0.00000000 2 # 116: H
 36.89268220  7.10000000  0.00000000 2 # 117: H
 38.12243827  0.71000000  0.00000000 1 # 118: C
 38.12243827  2.13000000  0.00000000 1 # 119: C
 38.12243827  6.39000000  0.00000000 2 # 120: H
 39.35219435  0.00000000  0.00000000 1 # 121: C
 39.35219435  2.84000000  0.00000000 2 # 122: H
 39.35219435  7.10000000  0.00000000 1 # 123: C
 40.58195042  0.71000000  0.00000000 1 # 124: C
 40.58195042  2.13000000  0.00000000 2 # 125: H
 40.58195042  4.97000000  0.00000000 2 # 126: H
 40.58195042  6.39000000  0.00000000 1 # 127: C
 41.81170649  0.00000000  0.00000000 1 # 128: C
 41.81170649  4.26000000  0.00000000 2 # 129: H
 41.81170649  7.10000000  0.00000000 1 # 130: C
 43.04146257  0.71000000  0.00000000 2 # 131: H
 43.04146257  4.97000000  0.00000000 1 # 132: C
 43.04146257  6.39000000  0.00000000 1 # 133: C
 44.27121864  0.00000000  0.00000000 2 # 134: H
 44.27121864  2.84000000  0.00000000 2 # 135: H
 44.27121864  4.26000000  0.00000000 1 # 136: C
 44.27121864  7.10000000  0.00000000 1 # 137: C
 45.50097471  2.13000000  0.00000000 2 # 138: H
 45.50097471  4.97000000  0.00000000 1 # 139: C
 45.50097471  6.39000000  0.00000000 1 # 140: C
%endblock AtomicCoordinatesAndAtomicSpecies

NumberOfSpecies 2
%block ChemicalSpeciesLabel
 1 6 C
 2 1 H
%endblock ChemicalSpeciesLabel
