LatticeConstant 1.0 Ang
%block LatticeVectors
 20.00000000 0.00000000 0.00000000
 0.00000000 10.00000000 0.00000000
 0.00000000 0.00000000 50.00000000
%endblock LatticeVectors

NumberOfAtoms 28
AtomicCoordinatesFormat Ang
%block AtomicCoordinatesAndAtomicSpecies
 10.00000000  3.00000000  3.00000000 1 #  1: C
 10.70500000  1.77890418  3.00000000 1 #  2: C
 12.11500000  1.77890418  3.00000000 1 #  3: C
 12.82000000  3.00000000  3.00000000 1 #  4: C
 12.11500000  4.22109582  3.00000000 1 #  5: C
 10.70500000  4.22109582  3.00000000 1 #  6: C
 10.15350000  0.82367816  3.00000000 2 #  7: H
 12.66650000  0.82367816  3.00000000 2 #  8: H
 12.66650000  5.17632184  3.00000000 2 #  9: H
 14.62000000  3.00000000  3.00000000 3 # 10: S
 15.96000000  3.00000000  3.00000000 2 # 11: H
  9.96773663  5.50323611  3.00000000 4 # 12: N
  8.74963514  5.45644137  3.00000000 5 # 13: O
 10.61731281  6.53474558  3.00000000 5 # 14: O
  8.50800000  3.00000000  3.00000000 1 # 15: C
  7.80300000  3.00000000  4.22109582 1 # 16: C
  6.39300000  3.00000000  4.22109582 1 # 17: C
  5.68800000  3.00000000  3.00000000 1 # 18: C
  6.39300000  3.00000000  1.77890418 1 # 19: C
  7.80300000  3.00000000  1.77890418 1 # 20: C
  8.35450000  3.00000000  5.17632184 2 # 21: H
  5.84150000  3.00000000  5.17632184 2 # 22: H
  5.84150000  3.00000000  0.82367816 2 # 23: H
  3.88800000  3.00000000  3.00000000 3 # 24: S
  2.54800000  3.00000000  3.00000000 2 # 25: H
  8.54026337  3.00000000  0.49676389 4 # 26: N
  9.75836486  3.00000000  0.54355863 5 # 27: O
  7.89068719  3.00000000 -0.53474558 5 # 28: O
%endblock AtomicCoordinatesAndAtomicSpecies

NumberOfSpecies 5
%block ChemicalSpeciesLabel
 1 6 C
 2 1 H
 3 16 S
 4 7 N
 5 8 O
%endblock ChemicalSpeciesLabel
