LatticeConstant 1.0 Ang
%block LatticeVectors
 47.38891010 0.00000000 0.00000000
 0.00000000 8.64000000 0.00000000
 0.00000000 0.00000000 50.00000000
%endblock LatticeVectors

NumberOfAtoms 140
AtomicCoordinatesFormat Ang
%block AtomicCoordinatesAndAtomicSpecies
  0.70000000  1.00000000  0.00000000 1 #   1: C
  0.70000000  2.44000000  0.00000000 1 #   2: C
  1.94707658  0.28000000  0.00000000 1 #   3: C
  1.94707658  3.16000000  0.00000000 1 #   4: C
  3.19415316  1.00000000  0.00000000 1 #   5: C
  3.19415316  2.44000000  0.00000000 1 #   6: C
  4.44122974  0.28000000  0.00000000 1 #   7: C
  4.15111123  2.99250000  0.00000000 2 #   8: H
  5.68830633  1.00000000  0.00000000 1 #   9: C
  5.68830633  2.10500000  0.00000000 2 #  10: H
  6.93538291  0.28000000  0.00000000 1 #  11: C
  7.22550142  2.99250000  0.00000000 2 #  12: H
  8.18245949  1.00000000  0.00000000 1 #  13: C
  8.18245949  2.44000000  0.00000000 1 #  14: C
  9.42953607  0.28000000  0.00000000 1 #  15: C
  9.42953607  3.16000000  0.00000000 1 #  16: C
 10.67661265  1.00000000  0.00000000 1 #  17: C
 10.67661265  2.44000000  0.00000000 1 #  18: C
 11.63357072  0.44750000  0.00000000 2 #  19: H
 11.92368923  3.16000000  0.00000000 1 #  20: C
 13.13321548  1.40003908 -0.57044614 2 #  21: H
 13.14951926  2.47680011 -0.32276717 1 #  22: C
 14.39659584  3.19680011 -0.32276717 1 #  23: C
 15.33725014  2.67253908 -0.57044614 2 #  24: H
 16.91199556  3.49500000  0.00000000 2 #  25: H
 18.44919065  0.83250000  0.00000000 2 #  26: H
 18.44919065  2.60750000  0.00000000 2 #  27: H
 19.40614872  0.28000000  0.00000000 1 #  28: C
 19.40614872  3.16000000  0.00000000 1 #  29: C
 20.65322530  1.00000000  0.00000000 1 #  30: C
 20.65322530  2.44000000  0.00000000 1 #  31: C
 21.90030188  0.28000000  0.00000000 1 #  32: C
 21.90030188  3.16000000  0.00000000 1 #  33: C
 23.14737847  1.00000000  0.00000000 1 #  34: C
 23.14737847  2.44000000  0.00000000 1 #  35: C
 24.39445505  0.28000000  0.00000000 1 #  36: C
 24.39445505  3.16000000  0.00000000 1 #  37: C
 25.64153163  1.00000000  0.00000000 1 #  38: C
 25.64153163  2.44000000  0.00000000 1 #  39: C
 26.88860821  0.28000000  0.00000000 1 #  40: C
 26.88860821  3.16000000  0.00000000 1 #  41: C
 27.84556628  0.83250000  0.00000000 2 #  42: H
 27.84556628  2.60750000  0.00000000 2 #  43: H
 29.38276137  3.49500000  0.00000000 2 #  44: H
 30.91995647  2.60750000  0.00000000 2 #  45: H
 31.87691454  3.16000000  0.00000000 1 #  46: C
 33.12399112  1.33500000  0.00000000 2 #  47: H
 33.12399112  2.44000000  0.00000000 1 #  48: C
 34.69873654  0.51253908  0.57044614 2 #  49: H
 34.37106770  3.16000000  0.00000000 1 #  50: C
 35.63939083  1.03680011  0.32276717 1 #  51: C
 35.61814428  2.44000000  0.00000000 1 #  52: C
 36.88646741  0.31680011  0.32276717 1 #  53: C
 36.84397431  3.12319989 -0.32276717 1 #  54: C
 38.11229744  1.00000000  0.00000000 1 #  55: C
 38.09105089  2.40319989 -0.32276717 1 #  56: C
  0.70000000  5.32000000  0.00000000 1 #  57: C
  0.70000000  6.76000000  0.00000000 1 #  58: C
  1.94707658  4.60000000  0.00000000 1 #  59: C
  1.94707658  7.48000000  0.00000000 1 #  60: C
  3.19415316  5.32000000  0.00000000 1 #  61: C
  3.19415316  6.76000000  0.00000000 1 #  62: C
  4.15111123  4.76750000  0.00000000 2 #  63: H
  4.44122974  7.48000000  0.00000000 1 #  64: C
  5.68830633  5.65500000  0.00000000 2 #  65: H
  5.68830633  6.76000000  0.00000000 1 #  66: C
  6.93538291  7.48000000  0.00000000 1 #  67: C
  7.89234098  6.92750000  0.00000000 2 #  68: H
  9.42953607  4.26500000  0.00000000 2 #  69: H
  9.42953607 -0.82500000  0.00000000 2 #  70: H
 11.00428149  5.08746092  0.57044614 2 #  71: H
 11.94493579  4.56319989  0.32276717 1 #  72: C
 13.19201237  5.28319989  0.32276717 1 #  73: C
 13.20831614  6.35996092  0.57044614 2 #  74: H
 14.41784240  4.60000000  0.00000000 1 #  75: C
 14.70796091  7.31250000  0.00000000 2 #  76: H
 15.66491898  5.32000000  0.00000000 1 #  77: C
 15.66491898  6.76000000  0.00000000 1 #  78: C
 16.91199556  4.60000000  0.00000000 1 #  79: C
 16.91199556  7.48000000  0.00000000 1 #  80: C
 16.91199556  8.58500000  0.00000000 2 #  81: H
 18.15907214  5.32000000  0.00000000 1 #  82: C
 18.15907214  6.76000000  0.00000000 1 #  83: C
 19.40614872  4.60000000  0.00000000 1 #  84: C
 19.40614872  7.48000000  0.00000000 1 #  85: C
 20.65322530  5.32000000  0.00000000 1 #  86: C
 20.65322530  6.76000000  0.00000000 1 #  87: C
 21.90030188  4.60000000  0.00000000 1 #  88: C
 21.90030188  7.48000000  0.00000000 1 #  89: C
 23.14737847  5.32000000  0.00000000 1 #  90: C
 23.14737847  6.76000000  0.00000000 1 #  91: C
 24.39445505  4.60000000  0.00000000 1 #  92: C
 24.39445505  7.48000000  0.00000000 1 #  93: C
 25.64153163  5.32000000  0.00000000 1 #  94: C
 25.64153163  6.76000000  0.00000000 1 #  95: C
 26.88860821  4.60000000  0.00000000 1 #  96: C
 26.88860821  7.48000000  0.00000000 1 #  97: C
 28.13568479  5.32000000  0.00000000 1 #  98: C
 28.13568479  6.76000000  0.00000000 1 #  99: C
 29.38276137  4.60000000  0.00000000 1 # 100: C
 29.38276137  7.48000000  0.00000000 1 # 101: C
 29.38276137  8.58500000  0.00000000 2 # 102: H
 30.62983795  5.32000000  0.00000000 1 # 103: C
 30.62983795  6.76000000  0.00000000 1 # 104: C
 31.87691454  4.60000000  0.00000000 1 # 105: C
 31.58679603  7.31250000  0.00000000 2 # 106: H
 33.12399112  5.32000000  0.00000000 1 # 107: C
 33.12399112  6.42500000  0.00000000 2 # 108: H
 34.37106770  4.60000000  0.00000000 1 # 109: C
 35.32802577  5.15250000  0.00000000 2 # 110: H
 36.82767053  4.19996092 -0.57044614 2 # 111: H
 36.90277119 -0.75996092  0.57044614 2 # 112: H
 38.40241595  6.92750000  0.00000000 2 # 113: H
 39.35937402  0.28000000  0.00000000 1 # 114: C
 39.03170518  2.92746092 -0.57044614 2 # 115: H
 40.60645061  1.00000000  0.00000000 1 # 116: C
 40.60645061  2.10500000  0.00000000 2 # 117: H
 41.85352719  0.28000000  0.00000000 1 # 118: C
 42.14364570  2.99250000  0.00000000 2 # 119: H
 43.10060377  1.00000000  0.00000000 1 # 120: C
 43.10060377  2.44000000  0.00000000 1 # 121: C
 44.34768035  0.28000000  0.00000000 1 # 122: C
 44.34768035  3.16000000  0.00000000 1 # 123: C
 45.59475693  1.00000000  0.00000000 1 # 124: C
 45.59475693  2.44000000  0.00000000 1 # 125: C
 46.84183351  0.28000000  0.00000000 1 # 126: C
 46.84183351  3.16000000  0.00000000 1 # 127: C
 39.35937402  7.48000000  0.00000000 1 # 128: C
 40.60645061  5.65500000  0.00000000 2 # 129: H
 40.60645061  6.76000000  0.00000000 1 # 130: C
 42.14364570  4.76750000  0.00000000 2 # 131: H
 41.85352719  7.48000000  0.00000000 1 # 132: C
 43.10060377  5.32000000  0.00000000 1 # 133: C
 43.10060377  6.76000000  0.00000000 1 # 134: C
 44.34768035  4.60000000  0.00000000 1 # 135: C
 44.34768035  7.48000000  0.00000000 1 # 136: C
 45.59475693  5.32000000  0.00000000 1 # 137: C
 45.59475693  6.76000000  0.00000000 1 # 138: C
 46.84183351  4.60000000  0.00000000 1 # 139: C
 46.84183351  7.48000000  0.00000000 1 # 140: C
%endblock AtomicCoordinatesAndAtomicSpecies

NumberOfSpecies 2
%block ChemicalSpeciesLabel
 1 6 C
 2 1 H
%endblock ChemicalSpeciesLabel
