LatticeConstant 1.0 Ang
%block LatticeVectors
 50.00000000 0.00000000 0.00000000
 0.00000000 50.00000000 0.00000000
 0.00000000 0.00000000 50.00000000
%endblock LatticeVectors

NumberOfAtoms 26

NumberOfSpecies 4
%block ChemicalSpeciesLabel
 1 6 C
 2 1 H
 3 7 N
 4 8 O
%endblock ChemicalSpeciesLabel

ZM.UnitsLength Ang
ZM.UnitsAngle rad

%block Zmatrix
molecule
1 0 0 0 3.164151840313706 4.858804861691957 5.189079597867099 1 1 1
1 1 0 0 1.4278293852871804 1.3627233536698313 -0.21123526034118498 1 1 1
1 2 1 0 1.5086587324567444 2.1909281708576227 -2.1475047842294654 1 1 1
1 3 2 1 1.4278147031915356 2.0794594775888897 ANG 1 1 0
cartesian
3 2.80369404 5.96989079 4.27726166 1 1 1
3 5.37573021 6.95199069 6.95051385 1 1 1
4 5.84996570 7.88785790 7.62004348 1 1 1
4 1.59955150 6.11653605 3.99952804 1 1 1
4 4.29784363 6.37613145 7.19658114 1 1 1
4 3.72519530 6.69243976 3.84897486 1 1 1
1 6.51584194 5.00697495 3.88576437 1 1 1
1 4.77718244 3.48836820 6.38042294 1 1 1
1 7.31550405 7.22223283 5.44654711 1 1 1
1 2.09725087 4.10777640 5.73634216 1 1 1
1 3.71821332 2.72794342 6.93526209 1 1 1
1 7.68752384 5.72889634 3.54856907 1 1 1
1 2.37294435 3.03505981 6.61405838 1 1 1
1 8.09223712 6.83971120 4.32956326 1 1 1
2 6.20910629 4.13257437 3.27746157 1 1 1
2 5.82810296 3.23964001 6.63017367 1 1 1
2 7.57825543 8.08057936 6.09465874 1 1 1
2 1.06827105 4.39852228 5.44872040 1 1 1
2 3.94943899 1.89072379 7.62431441 1 1 1
2 8.28566685 5.41900319 2.66783581 1 1 1
2 1.54126984 2.44487972 7.04695045 1 1 1
2 9.00484832 7.40966150 4.06551159 1 1 1
constants
ANG 1.5004387215098145
%endblock Zmatrix
