LatticeConstant 1.0 Ang
%block LatticeVectors
 50.00000000 0.00000000 0.00000000
 0.00000000 50.00000000 0.00000000
 0.00000000 0.00000000 50.00000000
%endblock LatticeVectors

NumberOfAtoms 26

NumberOfSpecies 4
%block ChemicalSpeciesLabel
 1 6 C
 2 1 H
 3 7 N
 4 8 O
%endblock ChemicalSpeciesLabel

ZM.UnitsLength Ang
ZM.UnitsAngle rad

%block Zmatrix
molecule
1 0 0 0 3.164151840313706 4.858804861691957 5.189079597867099 1 1 1
1 1 0 0 1.4278293852871804 1.3627233536698313 -0.21123526034118498 1 1 1
1 2 1 0 1.5086587324567444 2.1909281708576227 -2.1475047842294654 1 1 1
1 3 2 1 1.4278147031915362 2.1815039314074673 ANG 1 1 0
cartesian
3 2.80369404 5.96989079 4.27726166 1 1 1
3 5.93922891 4.13645061 2.80695487 1 1 1
4 6.54174300 4.05688102 1.72083236 1 1 1
4 1.59955150 6.11653605 3.99952804 1 1 1
4 4.96733978 3.42799305 3.13486014 1 1 1
4 3.72519530 6.69243976 3.84897486 1 1 1
1 6.26202768 6.33963580 5.89198426 1 1 1
1 4.77718244 3.48836820 6.38042294 1 1 1
1 7.58157048 5.86898746 3.43838147 1 1 1
1 2.09725087 4.10777640 5.73634216 1 1 1
1 3.71821332 2.72794342 6.93526209 1 1 1
1 7.42842035 7.07226124 5.55957229 1 1 1
1 2.37294435 3.03505981 6.61405838 1 1 1
1 8.09223712 6.83971120 4.32956326 1 1 1
2 5.74073765 6.53249927 6.85102327 1 1 1
2 5.82810296 3.23964001 6.63017367 1 1 1
2 8.05496557 5.64086359 2.46385475 1 1 1
2 1.06827105 4.39852228 5.44872040 1 1 1
2 3.94943899 1.89072379 7.62431441 1 1 1
2 7.81922731 7.82888025 6.26971136 1 1 1
2 1.54126984 2.44487972 7.04695045 1 1 1
2 9.00484832 7.40966150 4.06551159 1 1 1
constants
ANG -1.5539845548306535
%endblock Zmatrix
