LatticeConstant 1.0 Ang
%block LatticeVectors
 47.49796763 0.00000000 0.00000000
 0.00000000 8.69675280 0.00000000
 0.00000000 0.00000000 50.00000000
%endblock LatticeVectors

NumberOfAtoms 140
AtomicCoordinatesFormat Ang
%block AtomicCoordinatesAndAtomicSpecies
  0.00000007  7.29656801  0.00000000 1 #   1: C
  1.24937108  6.56649253  0.00000000 1 #   2: C
  1.24555135  5.11928305 -0.00000005 1 #   3: C
  0.00000007  4.38872932 -0.00000005 1 #   4: C
  1.24619727  2.21636596  0.00000000 1 #   5: C
  1.24953734  0.76893315  0.00000000 1 #   6: C
  2.49309891  7.29287188  0.00000000 1 #   7: C
  3.74010388  6.56176610  0.00000000 1 #   8: C
  3.70035932  5.15262818  0.00000000 1 #   9: C
  2.49465334  4.40267283  0.00000000 1 #  10: C
  2.49583712  2.93335075  0.00000000 1 #  11: C
  3.70229610  2.18419682  0.00000000 1 #  12: C
  3.74025753  0.77422028  0.00000000 1 #  13: C
  2.49257531  0.04262459  0.00000000 1 #  14: C
  5.02006514  7.29952396  0.00000005 1 #  15: C
  6.26837464  6.61517167  0.00000000 1 #  16: C
  6.26103654  5.51294137  0.00000000 2 #  17: H
  4.65460015  4.60230310  0.00000000 2 #  18: H
  4.65920849  2.73060857  0.00000005 2 #  19: H
  6.32693855  1.80937776  0.00000005 2 #  20: H
  6.28065071  0.70479420  0.00000000 1 #  21: C
  5.01608506  0.03888370  0.00000005 1 #  22: C
  7.51928165  7.27113022  0.00000000 1 #  23: C
 16.22970233  2.20872839  0.00000000 1 #  24: C
 16.25734708  0.77716116  0.00000000 1 #  25: C
 15.32007882  0.19116501 -0.00000010 2 #  26: H
  8.42890515  0.59194081 -0.00000005 2 #  27: H
  7.49163693  0.00594467  0.00000000 1 #  28: C
 17.48060941  2.86468691  0.00000000 1 #  29: C
 18.72891891  2.18033466  0.00000000 1 #  30: C
 18.73289889  0.74422207  0.00000005 1 #  31: C
 17.46833317  0.07831156  0.00000000 1 #  32: C
 20.00888004  2.91809255  0.00000000 1 #  33: C
 21.25588504  2.18698662  0.00000005 1 #  34: C
 21.25640853  0.74048124  0.00000005 1 #  35: C
 20.00872648  0.00888547  0.00000000 1 #  36: C
 22.49961279  2.91336609  0.00000000 1 #  37: C
 23.74898378  2.18329054  0.00000000 1 #  38: C
 23.74898378  0.74424295  0.00000000 1 #  39: C
 22.49944648  0.01417274  0.00000000 1 #  40: C
 24.99835477  2.91336610  0.00000000 1 #  41: C
 26.24208266  2.18698670  0.00000005 1 #  42: C
 26.24155909  0.74048121  0.00000005 1 #  43: C
 24.99852102  0.01417270  0.00000005 1 #  44: C
 27.48908762  2.91809252  0.00000000 1 #  45: C
 28.76904882  2.18033465  0.00000000 1 #  46: C
 28.76506877  0.74422196  0.00000000 1 #  47: C
 27.48924118  0.00888550  0.00000000 1 #  48: C
 30.01735822  2.86468690  0.00000000 1 #  49: C
 31.26826520  2.20872822  0.00000000 1 #  50: C
 31.24062054  0.77716102  0.00000000 1 #  51: C
 30.02963449  0.07831145  0.00000000 1 #  52: C
 39.06906234  0.59194081  0.00000005 2 #  53: H
 39.97868595  7.27113033  0.00000000 1 #  54: C
 41.22959302  6.61517168  0.00000000 1 #  55: C
 41.23693105  5.51294129  0.00000005 2 #  56: H
 32.17788887  0.19116504 -0.00000005 2 #  57: H
 41.17102904  1.80937783  0.00000005 2 #  58: H
 41.21731682  0.70479430  0.00000000 1 #  59: C
 40.00633067  0.00594480  0.00000000 1 #  60: C
 42.47790256  7.29952399 -0.00000005 1 #  61: C
 43.75786368  6.56176605 -0.00000005 1 #  62: C
 43.79760830  5.15262810  0.00000000 1 #  63: C
 42.84336742  4.60230309  0.00000000 2 #  64: H
 42.83875921  2.73060860 -0.00000005 2 #  65: H
 43.79567156  2.18419685  0.00000000 1 #  66: C
 43.75771010  0.77422033  0.00000000 1 #  67: C
 42.48188250  0.03888383 -0.00000005 1 #  68: C
 45.00486872  7.29287187 -0.00000005 1 #  69: C
 46.24859667  6.56649248  0.00000000 1 #  70: C
 46.25241631  5.11928308 -0.00000005 1 #  71: C
 45.00331435  4.40267282  0.00000000 1 #  72: C
 45.00213054  2.93335083  0.00000000 1 #  73: C
 46.25177046  2.21636597  0.00000000 1 #  74: C
 46.24843045  0.76893315  0.00000005 1 #  75: C
 45.00539231  0.04262465  0.00000000 1 #  76: C
 47.49796772  2.94662876  0.00000000 1 #  77: C
 47.49796772  0.03886287  0.00000000 1 #  78: C
 17.42204539  7.67048082  0.00000000 2 #  79: H
 19.08977539  6.74925007 -0.00000010 2 #  80: H
 19.09438373  4.87755547 -0.00000010 2 #  81: H
 17.48794753  3.96691729  0.00000000 2 #  82: H
 20.04668775  7.29566178  0.00000000 1 #  83: C
 21.25314666  6.54650779  0.00000000 1 #  84: C
 21.25433054  5.07718580  0.00000000 1 #  85: C
 20.04862449  4.32723043  0.00000000 1 #  86: C
 22.50278664  7.26349261  0.00000000 1 #  87: C
 23.74898385  6.53322974  0.00000000 1 #  88: C
 23.74898381  5.09112931  0.00000000 1 #  89: C
 22.50343256  4.36057555  0.00000000 1 #  90: C
 24.99518102  7.26349253  0.00000005 1 #  91: C
 26.24482086  6.54650780  0.00000005 1 #  92: C
 26.24363709  5.07718578  0.00000005 1 #  93: C
 24.99453510  4.36057557  0.00000005 1 #  94: C
 27.45127972  7.29566176  0.00000000 1 #  95: C
 28.40819227  6.74925007 -0.00000010 2 #  96: H
 28.40358393  4.87755548 -0.00000010 2 #  97: H
 27.44934300  4.32723047  0.00000000 1 #  98: C
 30.07592217  7.67048081  0.00000000 2 #  99: H
 30.01002012  3.96691722  0.00000000 2 # 100: H
  8.75769798  6.55613022  0.00000000 1 # 101: C
  9.99611430  7.27113022  0.00000000 1 # 102: C
 11.23453063  6.55613022  0.00000000 1 # 103: C
 11.23453063  5.12613022  0.00000000 1 # 104: C
  9.99611430  4.41113022  0.00000000 1 # 105: C
  8.75769798  5.12613022  0.00000000 1 # 106: C
  9.99611430  8.37443022  0.00000000 2 # 107: H
 12.19001646  7.10778022  0.00000000 2 # 108: H
  9.99611430  3.30783022  0.00000000 2 # 109: H
  7.80221215  4.57448022  0.00000000 2 # 110: H
 12.47294696  4.41113022  0.00000000 1 # 111: C
 13.71136329  5.12613022  0.00000000 1 # 112: C
 14.94977961  4.41113022  0.00000000 1 # 113: C
 14.94977961  2.98113022  0.00000000 1 # 114: C
 13.71136329  2.26613022  0.00000000 1 # 115: C
 12.47294696  2.98113022  0.00000000 1 # 116: C
 13.71136329  6.22943022  0.00000000 2 # 117: H
 15.90526544  4.96278022  0.00000000 2 # 118: H
 13.71136329  1.16283022  0.00000000 2 # 119: H
 11.51746113  2.42948022  0.00000000 2 # 120: H
 32.50668153  2.92372822  0.00000000 1 # 121: C
 33.74509785  2.20872822  0.00000000 1 # 122: C
 34.98351418  2.92372822  0.00000000 1 # 123: C
 34.98351418  4.35372822  0.00000000 1 # 124: C
 33.74509785  5.06872822  0.00000000 1 # 125: C
 32.50668153  4.35372822  0.00000000 1 # 126: C
 33.74509785  1.10542822  0.00000000 2 # 127: H
 35.93900001  2.37207822  0.00000000 2 # 128: H
 33.74509785  6.17202822  0.00000000 2 # 129: H
 31.55119570  4.90537822  0.00000000 2 # 130: H
 36.22193051  5.06872822  0.00000000 1 # 131: C
 37.46034684  4.35372822  0.00000000 1 # 132: C
 38.69876316  5.06872822  0.00000000 1 # 133: C
 38.69876316  6.49872822  0.00000000 1 # 134: C
 37.46034684  7.21372822  0.00000000 1 # 135: C
 36.22193051  6.49872822  0.00000000 1 # 136: C
 37.46034684  3.25042822  0.00000000 2 # 137: H
 39.65424899  4.51707822  0.00000000 2 # 138: H
 37.46034684  8.31702822  0.00000000 2 # 139: H
 35.26644468  7.05037822  0.00000000 2 # 140: H
%endblock AtomicCoordinatesAndAtomicSpecies

NumberOfSpecies 2
%block ChemicalSpeciesLabel
 1 6 C
 2 1 H
%endblock ChemicalSpeciesLabel
