LatticeConstant 1.0 Ang
%block LatticeVectors
 50.00000000 0.00000000 0.00000000
 0.00000000 50.00000000 0.00000000
 0.00000000 0.00000000 50.00000000
%endblock LatticeVectors

NumberOfAtoms 28
AtomicCoordinatesFormat Ang
%block AtomicCoordinatesAndAtomicSpecies
 10.01122257  3.01099991  2.97141748 1 #  1: C
 10.67030761  2.41914784  4.08549626 1 #  2: C
 12.07721978  2.31272323  4.15258916 1 #  3: C
 12.89436369  2.82263514  3.10017183 1 #  4: C
 12.26276604  3.44182302  1.99041467 1 #  5: C
 10.85199485  3.52370364  1.94019968 1 #  6: C
 10.05320836  2.02114581  4.91563233 2 #  7: H
 12.54984290  1.82947329  5.03229918 2 #  8: H
 12.82675285  3.87268045  1.14038827 2 #  9: H
 14.65600236  2.65433152  3.26603972 3 # 10: S
 14.98197937  3.24150169  2.06626412 2 # 11: H
 10.27107474  4.17076501  0.73972244 4 # 12: N
  9.03554848  4.11141030  0.59197023 5 # 13: O
 11.05552955  4.73420213 -0.04686154 5 # 14: O
  8.50484312  3.03545847  2.99849777 1 # 15: C
  7.84522381  2.94905444  4.25684901 1 # 16: C
  6.43726588  2.89717494  4.36087330 1 # 17: C
  5.62152152  2.91054758  3.19066955 1 # 18: C
  6.25611324  2.96892878  1.92265050 1 # 19: C
  7.66657209  3.03137218  1.84528546 1 # 20: C
  8.46091166  2.93407251  5.17848542 2 # 21: H
  5.96258665  2.84358754  5.36203267 2 # 22: H
  5.69492413  2.97079714  0.96783055 2 # 23: H
  3.85902185  2.84145030  3.41117925 3 # 24: S
  3.53137910  2.89701146  2.07698527 2 # 25: H
  8.25087185  3.10458264  0.48433914 4 # 26: N
  9.47998836  3.28444334  0.39166143 5 # 27: O
  7.47537640  2.97998018 -0.48210952 5 # 28: O
%endblock AtomicCoordinatesAndAtomicSpecies

NumberOfSpecies 5
%block ChemicalSpeciesLabel
 1 6 C
 2 1 H
 3 16 S
 4 7 N
 5 8 O
%endblock ChemicalSpeciesLabel
