LatticeConstant 1.0 Ang
%block LatticeVectors
 50.00000000 0.00000000 0.00000000
 0.00000000 50.00000000 0.00000000
 0.00000000 0.00000000 50.00000000
%endblock LatticeVectors

NumberOfAtoms 28
AtomicCoordinatesFormat Ang
%block AtomicCoordinatesAndAtomicSpecies
 10.01122257  3.01099991  2.97141748 1 #  1: C
 10.83784250  3.50578616  1.92368682 1 #  2: C
 12.24701682  3.42822689  1.98235376 1 #  3: C
 12.89436369  2.82263514  3.10017183 1 #  4: C
 12.09172294  2.29715061  4.14587925 1 #  5: C
 10.68342282  2.39944888  4.07020110 1 #  6: C
 10.35378883  3.97573000  1.04437583 2 #  7: H
 12.85459106  3.84090410  1.15088283 2 #  8: H
 12.51729346  1.80164225  5.04009697 2 #  9: H
 14.67065145  2.75979478  3.09229946 3 # 10: S
 14.80983355  2.14223429  4.31284798 2 # 11: H
  9.91915709  1.84027278  5.21060548 4 # 12: N
  8.69360304  2.06041769  5.24845159 5 # 13: O
 10.55086656  1.18431315  6.06043205 5 # 14: O
  8.50484312  3.03545847  2.99849777 1 # 15: C
  7.84522381  2.94905444  4.25684901 1 # 16: C
  6.43726588  2.89717494  4.36087330 1 # 17: C
  5.62152152  2.91054758  3.19066955 1 # 18: C
  6.25611324  2.96892878  1.92265050 1 # 19: C
  7.66657209  3.03137218  1.84528546 1 # 20: C
  8.46091166  2.93407251  5.17848542 2 # 21: H
  5.96258665  2.84358754  5.36203267 2 # 22: H
  5.69492413  2.97079714  0.96783055 2 # 23: H
  3.85902185  2.84145030  3.41117925 3 # 24: S
  3.53137910  2.89701146  2.07698527 2 # 25: H
  8.25087185  3.10458264  0.48433914 4 # 26: N
  9.47998836  3.28444334  0.39166143 5 # 27: O
  7.47537640  2.97998018 -0.48210952 5 # 28: O
%endblock AtomicCoordinatesAndAtomicSpecies

NumberOfSpecies 5
%block ChemicalSpeciesLabel
 1 6 C
 2 1 H
 3 16 S
 4 7 N
 5 8 O
%endblock ChemicalSpeciesLabel
