LatticeConstant 1.0 Ang
%block LatticeVectors
 50.00000000 0.00000000 0.00000000
 0.00000000 50.00000000 0.00000000
 0.00000000 0.00000000 50.00000000
%endblock LatticeVectors

NumberOfAtoms 28
AtomicCoordinatesFormat Ang
%block AtomicCoordinatesAndAtomicSpecies
 10.01122257  3.01099991  2.97141748 1 #  1: C
 10.73563013  3.44152524  4.11847245 1 #  2: C
 12.14266433  3.34351200  4.19513846 1 #  3: C
 12.89436369  2.82263514  3.10017183 1 #  4: C
 12.19796478  2.41144320  1.93405866 1 #  5: C
 10.78792199  2.50673523  1.88715347 1 #  6: C
 10.17013779  3.85352787  4.97801607 2 #  7: H
 12.66680083  3.67595889  5.11467794 2 #  8: H
 12.70951354  2.00848373  1.03839932 2 #  9: H
 14.66115460  2.73975668  3.27564295 3 # 10: S
 14.91393386  2.18442075  2.04349199 2 # 11: H
 10.13642767  2.04141360  0.63962267 4 # 12: N
  8.89328666  1.96128258  0.63198914 5 # 13: O
 10.87357184  1.75962626 -0.32409901 5 # 14: O
  8.50484312  3.03545847  2.99849777 1 # 15: C
  7.84522381  2.94905444  4.25684901 1 # 16: C
  6.43726588  2.89717494  4.36087330 1 # 17: C
  5.62152152  2.91054758  3.19066955 1 # 18: C
  6.25611324  2.96892878  1.92265050 1 # 19: C
  7.66657209  3.03137218  1.84528546 1 # 20: C
  8.46091166  2.93407251  5.17848542 2 # 21: H
  5.96258665  2.84358754  5.36203267 2 # 22: H
  5.69492413  2.97079714  0.96783055 2 # 23: H
  3.85902185  2.84145030  3.41117925 3 # 24: S
  3.53137910  2.89701146  2.07698527 2 # 25: H
  8.25087185  3.10458264  0.48433914 4 # 26: N
  9.47998836  3.28444334  0.39166143 5 # 27: O
  7.47537640  2.97998018 -0.48210952 5 # 28: O
%endblock AtomicCoordinatesAndAtomicSpecies

NumberOfSpecies 5
%block ChemicalSpeciesLabel
 1 6 C
 2 1 H
 3 16 S
 4 7 N
 5 8 O
%endblock ChemicalSpeciesLabel
