LatticeConstant 1.0 Ang
%block LatticeVectors
 50.00000000 0.00000000 0.00000000
 0.00000000 50.00000000 0.00000000
 0.00000000 0.00000000 50.00000000
%endblock LatticeVectors

NumberOfAtoms 28
AtomicCoordinatesFormat Ang
%block AtomicCoordinatesAndAtomicSpecies
 10.01122257  3.01099991  2.97141748 1 #  1: C
 10.76884913  3.79269767  3.88837119 1 #  2: C
 12.17615959  3.69976335  3.96628126 1 #  3: C
 12.89436369  2.82263514  3.10017183 1 #  4: C
 12.16447841  2.05207899  2.15816287 1 #  5: C
 10.75487229  2.15265499  2.10920963 1 #  6: C
 10.22967643  4.48369809  4.56671786 2 #  7: H
 12.72680395  4.31557340  4.70679569 2 #  8: H
 12.64892889  1.35830377  1.44384657 2 #  9: H
 14.66393241  2.77071108  3.25872629 3 # 10: S
 14.87959089  1.82399377  2.28522279 2 # 11: H
 10.06723096  1.30261473  1.10826851 4 # 12: N
  8.82345974  1.24849027  1.15279400 5 # 13: O
 10.77686442  0.69522252  0.28422958 5 # 14: O
  8.50484312  3.03545847  2.99849777 1 # 15: C
  7.84522381  2.94905444  4.25684901 1 # 16: C
  6.43726588  2.89717494  4.36087330 1 # 17: C
  5.62152152  2.91054758  3.19066955 1 # 18: C
  6.25611324  2.96892878  1.92265050 1 # 19: C
  7.66657209  3.03137218  1.84528546 1 # 20: C
  8.46091166  2.93407251  5.17848542 2 # 21: H
  5.96258665  2.84358754  5.36203267 2 # 22: H
  5.69492413  2.97079714  0.96783055 2 # 23: H
  3.85902185  2.84145030  3.41117925 3 # 24: S
  3.53137910  2.89701146  2.07698527 2 # 25: H
  8.25087185  3.10458264  0.48433914 4 # 26: N
  9.47998836  3.28444334  0.39166143 5 # 27: O
  7.47537640  2.97998018 -0.48210952 5 # 28: O
%endblock AtomicCoordinatesAndAtomicSpecies

NumberOfSpecies 5
%block ChemicalSpeciesLabel
 1 6 C
 2 1 H
 3 16 S
 4 7 N
 5 8 O
%endblock ChemicalSpeciesLabel
