LatticeConstant 1.0 Ang
%block LatticeVectors
 50.00000000 0.00000000 0.00000000
 0.00000000 50.00000000 0.00000000
 0.00000000 0.00000000 50.00000000
%endblock LatticeVectors

NumberOfAtoms 28
AtomicCoordinatesFormat Ang
%block AtomicCoordinatesAndAtomicSpecies
 10.01122257  3.01099991  2.97141748 1 #  1: C
 10.67679193  1.75289149  2.96557737 1 #  2: C
 12.08469080  1.65094805  3.01713134 1 #  3: C
 12.89436369  2.82263514  3.10017183 1 #  4: C
 12.25391092  4.08853000  3.13482179 1 #  5: C
 10.84351349  4.16475239  3.06795940 1 #  6: C
 10.06515929  0.83054525  2.90619782 2 #  7: H
 12.56384396  0.65061012  2.99412863 2 #  8: H
 12.81072907  5.04269397  3.21090583 2 #  9: H
 14.65723129  2.60599658  3.16780801 3 # 10: S
 14.97641115  3.94250129  3.21649777 2 # 11: H
 10.25441697  5.52475623  3.09359208 4 # 12: N
  9.03288584  5.62973180  2.87286451 5 # 13: O
 11.01847238  6.47848070  3.33478512 5 # 14: O
  8.50484312  3.03545847  2.99849777 1 # 15: C
  7.84522381  2.94905444  4.25684901 1 # 16: C
  6.43726588  2.89717494  4.36087330 1 # 17: C
  5.62152152  2.91054758  3.19066955 1 # 18: C
  6.25611324  2.96892878  1.92265050 1 # 19: C
  7.66657209  3.03137218  1.84528546 1 # 20: C
  8.46091166  2.93407251  5.17848542 2 # 21: H
  5.96258665  2.84358754  5.36203267 2 # 22: H
  5.69492413  2.97079714  0.96783055 2 # 23: H
  3.85902185  2.84145030  3.41117925 3 # 24: S
  3.53137910  2.89701146  2.07698527 2 # 25: H
  8.25087185  3.10458264  0.48433914 4 # 26: N
  9.47998836  3.28444334  0.39166143 5 # 27: O
  7.47537640  2.97998018 -0.48210952 5 # 28: O
%endblock AtomicCoordinatesAndAtomicSpecies

NumberOfSpecies 5
%block ChemicalSpeciesLabel
 1 6 C
 2 1 H
 3 16 S
 4 7 N
 5 8 O
%endblock ChemicalSpeciesLabel
