LatticeConstant 1.0 Ang
%block LatticeVectors
 50.00000000 0.00000000 0.00000000
 0.00000000 50.00000000 0.00000000
 0.00000000 0.00000000 50.00000000
%endblock LatticeVectors

NumberOfAtoms 28
AtomicCoordinatesFormat Ang
%block AtomicCoordinatesAndAtomicSpecies
 10.01122257  3.01099991  2.97141748 1 #  1: C
 10.84794857  4.07369739  2.52822770 1 #  2: C
 12.25662163  3.99549349  2.59717587 1 #  3: C
 12.89436369  2.82263514  3.10017183 1 #  4: C
 12.08299043  1.73801073  3.52341348 1 #  5: C
 10.67464211  1.84611414  3.45730733 1 #  6: C
 10.37169553  4.99170781  2.12975198 2 #  7: H
 12.87140953  4.85354688  2.25574790 2 #  8: H
 12.50149605  0.79004409  3.91389574 2 #  9: H
 14.67106564  2.80333253  3.14671945 3 # 10: S
 14.79867304  1.54857336  3.69424760 2 # 11: H
  9.90008266  0.67541773  3.93357378 4 # 12: N
  8.66547802  0.80354583  4.03946722 5 # 13: O
 10.53285329 -0.36437808  4.19809428 5 # 14: O
  8.50484312  3.03545847  2.99849777 1 # 15: C
  7.84522381  2.94905444  4.25684901 1 # 16: C
  6.43726588  2.89717494  4.36087330 1 # 17: C
  5.62152152  2.91054758  3.19066955 1 # 18: C
  6.25611324  2.96892878  1.92265050 1 # 19: C
  7.66657209  3.03137218  1.84528546 1 # 20: C
  8.46091166  2.93407251  5.17848542 2 # 21: H
  5.96258665  2.84358754  5.36203267 2 # 22: H
  5.69492413  2.97079714  0.96783055 2 # 23: H
  3.85902185  2.84145030  3.41117925 3 # 24: S
  3.53137910  2.89701146  2.07698527 2 # 25: H
  8.25087185  3.10458264  0.48433914 4 # 26: N
  9.47998836  3.28444334  0.39166143 5 # 27: O
  7.47537640  2.97998018 -0.48210952 5 # 28: O
%endblock AtomicCoordinatesAndAtomicSpecies

NumberOfSpecies 5
%block ChemicalSpeciesLabel
 1 6 C
 2 1 H
 3 16 S
 4 7 N
 5 8 O
%endblock ChemicalSpeciesLabel
