LatticeConstant 1.0 Ang
%block LatticeVectors
 50.00000000 0.00000000 0.00000000
 0.00000000 50.00000000 0.00000000
 0.00000000 0.00000000 50.00000000
%endblock LatticeVectors

NumberOfAtoms 28
AtomicCoordinatesFormat Ang
%block AtomicCoordinatesAndAtomicSpecies
 10.01122257  3.01099991  2.97141748 1 #  1: C
 10.67217135  1.75440444  3.07125741 1 #  2: C
 12.07996787  1.65151538  3.12371992 1 #  3: C
 12.89436369  2.82263514  3.10017183 1 #  4: C
 12.25872759  4.08938669  3.02821741 1 #  5: C
 10.84824965  4.16533258  2.96275340 1 #  6: C
 10.05685525  0.83291891  3.09561935 2 #  7: H
 12.55534102  0.65099206  3.18509011 2 #  8: H
 12.81944374  5.04424678  3.01803360 2 #  9: H
 14.65679785  2.60541768  3.17666692 3 # 10: S
 14.98111025  3.93977070  3.10727812 2 # 11: H
 10.26425778  5.52484120  2.87335549 4 # 12: N
  9.04184673  5.61528511  2.65107195 5 # 13: O
 11.03316978  6.49275169  3.02655046 5 # 14: O
  8.50484312  3.03545847  2.99849777 1 # 15: C
  7.84522381  2.94905444  4.25684901 1 # 16: C
  6.43726588  2.89717494  4.36087330 1 # 17: C
  5.62152152  2.91054758  3.19066955 1 # 18: C
  6.25611324  2.96892878  1.92265050 1 # 19: C
  7.66657209  3.03137218  1.84528546 1 # 20: C
  8.46091166  2.93407251  5.17848542 2 # 21: H
  5.96258665  2.84358754  5.36203267 2 # 22: H
  5.69492413  2.97079714  0.96783055 2 # 23: H
  3.85902185  2.84145030  3.41117925 3 # 24: S
  3.53137910  2.89701146  2.07698527 2 # 25: H
  8.25087185  3.10458264  0.48433914 4 # 26: N
  9.47998836  3.28444334  0.39166143 5 # 27: O
  7.47537640  2.97998018 -0.48210952 5 # 28: O
%endblock AtomicCoordinatesAndAtomicSpecies

NumberOfSpecies 5
%block ChemicalSpeciesLabel
 1 6 C
 2 1 H
 3 16 S
 4 7 N
 5 8 O
%endblock ChemicalSpeciesLabel
