LatticeConstant 1.0 Ang
%block LatticeVectors
 50.00000000 0.00000000 0.00000000
 0.00000000 50.00000000 0.00000000
 0.00000000 0.00000000 50.00000000
%endblock LatticeVectors

NumberOfAtoms 28
AtomicCoordinatesFormat Ang
%block AtomicCoordinatesAndAtomicSpecies
 10.01122257  3.01099991  2.97141748 1 #  1: C
 10.70463587  3.03257132  4.21422324 1 #  2: C
 12.11151551  2.93020542  4.28798239 1 #  3: C
 12.89436369  2.82263514  3.10017183 1 #  4: C
 12.22895199  2.82605422  1.84674223 1 #  5: C
 10.81853368  2.91567602  1.79995027 1 #  6: C
 10.11462296  3.12022118  5.14832455 2 #  7: H
 12.61106942  2.93493509  5.27854604 2 #  8: H
 12.76557629  2.75861445  0.88043465 2 #  9: H
 14.65863881  2.70485895  3.28092350 3 # 10: S
 14.94610246  2.60605336  1.93999344 2 # 11: H
 10.20064157  2.89649780  0.45267758 4 # 12: N
  8.95965061  2.80972204  0.38717759 5 # 13: O
 10.96179113  2.96872325 -0.53067380 5 # 14: O
  8.50484312  3.03545847  2.99849777 1 # 15: C
  7.84522381  2.94905444  4.25684901 1 # 16: C
  6.43726588  2.89717494  4.36087330 1 # 17: C
  5.62152152  2.91054758  3.19066955 1 # 18: C
  6.25611324  2.96892878  1.92265050 1 # 19: C
  7.66657209  3.03137218  1.84528546 1 # 20: C
  8.46091166  2.93407251  5.17848542 2 # 21: H
  5.96258665  2.84358754  5.36203267 2 # 22: H
  5.69492413  2.97079714  0.96783055 2 # 23: H
  3.85902185  2.84145030  3.41117925 3 # 24: S
  3.53137910  2.89701146  2.07698527 2 # 25: H
  8.25087185  3.10458264  0.48433914 4 # 26: N
  9.47998836  3.28444334  0.39166143 5 # 27: O
  7.47537640  2.97998018 -0.48210952 5 # 28: O
%endblock AtomicCoordinatesAndAtomicSpecies

NumberOfSpecies 5
%block ChemicalSpeciesLabel
 1 6 C
 2 1 H
 3 16 S
 4 7 N
 5 8 O
%endblock ChemicalSpeciesLabel
