LatticeConstant 1.0 Ang
%block LatticeVectors
 50.00000000 0.00000000 0.00000000
 0.00000000 50.00000000 0.00000000
 0.00000000 0.00000000 50.00000000
%endblock LatticeVectors

NumberOfAtoms 28
AtomicCoordinatesFormat Ang
%block AtomicCoordinatesAndAtomicSpecies
 10.01122257  3.01099991  2.97141748 1 #  1: C
 10.71196238  3.13759414  4.20380991 1 #  2: C
 12.11886795  3.03621746  4.27843560 1 #  3: C
 12.89436369  2.82263514  3.10017183 1 #  4: C
 12.22165350  2.71989821  1.85487014 1 #  5: C
 10.81132068  2.81093640  1.80823611 1 #  6: C
 10.12774197  3.30849518  5.12999690 2 #  7: H
 12.62421735  3.12492080  5.26207504 2 #  8: H
 12.75237175  2.56655318  0.89513707 2 #  9: H
 14.65922569  2.71372632  3.28075441 3 # 10: S
 14.93848545  2.49761802  1.95191940 2 # 11: H
 10.18549833  2.67733925  0.47114959 4 # 12: N
  8.94383864  2.59032381  0.42027356 5 # 13: O
 10.94114428  2.66072293 -0.51893535 5 # 14: O
  8.50484312  3.03545847  2.99849777 1 # 15: C
  7.84522381  2.94905444  4.25684901 1 # 16: C
  6.43726588  2.89717494  4.36087330 1 # 17: C
  5.62152152  2.91054758  3.19066955 1 # 18: C
  6.25611324  2.96892878  1.92265050 1 # 19: C
  7.66657209  3.03137218  1.84528546 1 # 20: C
  8.46091166  2.93407251  5.17848542 2 # 21: H
  5.96258665  2.84358754  5.36203267 2 # 22: H
  5.69492413  2.97079714  0.96783055 2 # 23: H
  3.85902185  2.84145030  3.41117925 3 # 24: S
  3.53137910  2.89701146  2.07698527 2 # 25: H
  8.25087185  3.10458264  0.48433914 4 # 26: N
  9.47998836  3.28444334  0.39166143 5 # 27: O
  7.47537640  2.97998018 -0.48210952 5 # 28: O
%endblock AtomicCoordinatesAndAtomicSpecies

NumberOfSpecies 5
%block ChemicalSpeciesLabel
 1 6 C
 2 1 H
 3 16 S
 4 7 N
 5 8 O
%endblock ChemicalSpeciesLabel
