LatticeConstant 1.0 Ang
%block LatticeVectors
 50.00000000 0.00000000 0.00000000
 0.00000000 50.00000000 0.00000000
 0.00000000 0.00000000 50.00000000
%endblock LatticeVectors

NumberOfAtoms 28
AtomicCoordinatesFormat Ang
%block AtomicCoordinatesAndAtomicSpecies
 10.01122257  3.01099991  2.97141748 1 #  1: C
 10.71534062  1.93266990  2.36538478 1 #  2: C
 12.12384917  1.83770182  2.41349119 1 #  3: C
 12.89436369  2.82263514  3.10017183 1 #  4: C
 12.21433334  3.89368221  3.73600756 1 #  5: C
 10.80453207  3.97396301  3.66173292 1 #  6: C
 10.13435237  1.15469657  1.83101304 2 #  7: H
 12.63418332  0.98878738  1.91379511 2 #  8: H
 12.73912315  4.69015255  4.29858623 2 #  9: H
 14.66066760  2.62506434  3.11875588 3 # 10: S
 14.93691007  3.76331130  3.83887759 2 # 11: H
 10.17314179  5.13175884  4.33860610 4 # 12: N
  8.95525494  5.31627071  4.15263341 5 # 13: O
 10.90061462  5.84829726  5.05197912 5 # 14: O
  8.50484312  3.03545847  2.99849777 1 # 15: C
  7.84522381  2.94905444  4.25684901 1 # 16: C
  6.43726588  2.89717494  4.36087330 1 # 17: C
  5.62152152  2.91054758  3.19066955 1 # 18: C
  6.25611324  2.96892878  1.92265050 1 # 19: C
  7.66657209  3.03137218  1.84528546 1 # 20: C
  8.46091166  2.93407251  5.17848542 2 # 21: H
  5.96258665  2.84358754  5.36203267 2 # 22: H
  5.69492413  2.97079714  0.96783055 2 # 23: H
  3.85902185  2.84145030  3.41117925 3 # 24: S
  3.53137910  2.89701146  2.07698527 2 # 25: H
  8.25087185  3.10458264  0.48433914 4 # 26: N
  9.47998836  3.28444334  0.39166143 5 # 27: O
  7.47537640  2.97998018 -0.48210952 5 # 28: O
%endblock AtomicCoordinatesAndAtomicSpecies

NumberOfSpecies 5
%block ChemicalSpeciesLabel
 1 6 C
 2 1 H
 3 16 S
 4 7 N
 5 8 O
%endblock ChemicalSpeciesLabel
