LatticeConstant 1.0 Ang
%block LatticeVectors
 50.00000000 0.00000000 0.00000000
 0.00000000 50.00000000 0.00000000
 0.00000000 0.00000000 50.00000000
%endblock LatticeVectors

NumberOfAtoms 26
AtomicCoordinatesFormat Ang
%block AtomicCoordinatesAndAtomicSpecies
 2.80369404 5.96989079 4.27726166 3 #  1: N
 4.52384884 7.57179685 5.32558242 3 #  2: N
 5.71990247 5.36333597 5.01013428 1 #  3: C
 4.53013180 4.56589209 5.48403320 1 #  4: C
 5.73800875 6.79089805 4.99029741 1 #  5: C
 3.16415184 4.85880486 5.18907960 1 #  6: C
 4.63185488 8.81067752 5.37584203 4 #  7: O
 1.59955150 6.11653605 3.99952804 4 #  8: O
 3.46838721 6.94086762 5.53035426 4 #  9: O
 3.72519530 6.69243976 3.84897486 4 # 10: O
 6.92921341 4.69992388 4.66060325 1 # 11: C
 4.77718244 3.48836820 6.38042294 1 # 12: C
 6.90230566 7.52519160 4.66343407 1 # 13: C
 2.09725087 4.10777640 5.73634216 1 # 14: C
 3.71821332 2.72794342 6.93526209 1 # 15: C
 8.10165695 5.42282595 4.32819028 1 # 16: C
 2.37294435 3.03505981 6.61405838 1 # 17: C
 8.09223712 6.83971120 4.32956326 1 # 18: C
 6.94464305 3.59158947 4.66782733 2 # 19: H
 5.82810296 3.23964001 6.63017367 2 # 20: H
 6.83097676 8.62992310 4.68149599 2 # 21: H
 1.06827105 4.39852228 5.44872040 2 # 22: H
 3.94943899 1.89072379 7.62431441 2 # 23: H
 9.02730103 4.87166966 4.06568372 2 # 24: H
 1.54126984 2.44487972 7.04695045 2 # 25: H
 9.00484832 7.40966150 4.06551159 2 # 26: H
%endblock AtomicCoordinatesAndAtomicSpecies

NumberOfSpecies 4
%block ChemicalSpeciesLabel
 1 6 C
 2 1 H
 3 7 N
 4 8 O
%endblock ChemicalSpeciesLabel
