LatticeConstant 1.0 Ang
%block LatticeVectors
 50.00000000 0.00000000 0.00000000
 0.00000000 50.00000000 0.00000000
 0.00000000 0.00000000 50.00000000
%endblock LatticeVectors

NumberOfAtoms 26
AtomicCoordinatesFormat Ang
%block AtomicCoordinatesAndAtomicSpecies
 2.80369404 5.96989079 4.27726166 3 #  1: N
 4.74381768 7.50372118 5.94467207 3 #  2: N
 5.71990247 5.36333597 5.01013428 1 #  3: C
 4.53013180 4.56589209 5.48403320 1 #  4: C
 5.84334273 6.75854392 5.28728423 1 #  5: C
 3.16415184 4.85880486 5.18907960 1 #  6: C
 4.95074714 8.69551779 6.23761864 4 #  7: O
 1.59955150 6.11653605 3.99952804 4 #  8: O
 3.67794603 6.89347397 6.15802257 4 #  9: O
 3.72519530 6.69243976 3.84897486 4 # 10: O
 6.82172442 4.73602469 4.36423224 1 # 11: C
 4.77718244 3.48836820 6.38042294 1 # 12: C
 7.00927716 7.49103795 4.96222522 1 # 13: C
 2.09725087 4.10777640 5.73634216 1 # 14: C
 3.71821332 2.72794342 6.93526209 1 # 15: C
 7.99415425 5.45823950 4.03028059 1 # 16: C
 2.37294435 3.03505981 6.61405838 1 # 17: C
 8.09223712 6.83971120 4.32956326 1 # 18: C
 6.75402148 3.65320852 4.13702993 2 # 19: H
 5.82810296 3.23964001 6.63017367 2 # 20: H
 7.02460831 8.56745554 5.22094490 2 # 21: H
 1.06827105 4.39852228 5.44872040 2 # 22: H
 3.94943899 1.89072379 7.62431441 2 # 23: H
 8.83487706 4.93470810 3.53168262 2 # 24: H
 1.54126984 2.44487972 7.04695045 2 # 25: H
 9.00484832 7.40966150 4.06551159 2 # 26: H
%endblock AtomicCoordinatesAndAtomicSpecies

NumberOfSpecies 4
%block ChemicalSpeciesLabel
 1 6 C
 2 1 H
 3 7 N
 4 8 O
%endblock ChemicalSpeciesLabel
