LatticeConstant 1.0 Ang
%block LatticeVectors
 50.00000000 0.00000000 0.00000000
 0.00000000 50.00000000 0.00000000
 0.00000000 0.00000000 50.00000000
%endblock LatticeVectors

NumberOfAtoms 26
AtomicCoordinatesFormat Ang
%block AtomicCoordinatesAndAtomicSpecies
 2.80369404 5.96989079 4.27726166 3 #  1: N
 5.09511448 5.37770695 2.55722076 3 #  2: N
 5.71990247 5.36333597 5.01013428 1 #  3: C
 4.53013180 4.56589209 5.48403320 1 #  4: C
 6.01298314 5.73755242 3.66376115 1 #  5: C
 3.16415184 4.85880486 5.18907960 1 #  6: C
 5.36444974 5.81084984 1.42194000 4 #  7: O
 1.59955150 6.11653605 3.99952804 4 #  8: O
 4.11394654 4.65874465 2.82999380 4 #  9: O
 3.72519530 6.69243976 3.84897486 4 # 10: O
 6.66651534 5.74092197 6.00314655 1 # 11: C
 4.77718244 3.48836820 6.38042294 1 # 12: C
 7.17403047 6.46971813 3.32095449 1 # 13: C
 2.09725087 4.10777640 5.73634216 1 # 14: C
 3.71821332 2.72794342 6.93526209 1 # 15: C
 7.83491021 6.47155962 5.67340169 1 # 16: C
 2.37294435 3.03505981 6.61405838 1 # 17: C
 8.09223712 6.83971120 4.32956326 1 # 18: C
 6.46483127 5.46409993 7.05737069 2 # 19: H
 5.82810296 3.23964001 6.63017367 2 # 20: H
 7.31908733 6.72647720 2.25377173 2 # 21: H
 1.06827105 4.39852228 5.44872040 2 # 22: H
 3.94943899 1.89072379 7.62431441 2 # 23: H
 8.54780842 6.75269050 6.47480139 2 # 24: H
 1.54126984 2.44487972 7.04695045 2 # 25: H
 9.00484832 7.40966150 4.06551159 2 # 26: H
%endblock AtomicCoordinatesAndAtomicSpecies

NumberOfSpecies 4
%block ChemicalSpeciesLabel
 1 6 C
 2 1 H
 3 7 N
 4 8 O
%endblock ChemicalSpeciesLabel
